# Cayley graph of Z_333 rtimes_232 Z_3, degree 14, target diameter 3
# element (i,j) <-> index j*333+i ; connection set S = [524, 991, 344, 676, 421, 746, 418, 713, 482, 862, 544, 767, 560, 721]
N 999
0 344
0 418
0 421
0 482
0 524
0 544
0 560
0 676
0 713
0 721
0 746
0 767
0 862
0 991
1 345
1 419
1 422
1 483
1 525
1 545
1 561
1 677
1 714
1 722
1 747
1 768
1 863
1 992
2 346
2 420
2 423
2 484
2 526
2 546
2 562
2 678
2 715
2 723
2 748
2 769
2 864
2 993
3 347
3 421
3 424
3 485
3 527
3 547
3 563
3 679
3 716
3 724
3 749
3 770
3 865
3 994
4 348
4 422
4 425
4 486
4 528
4 548
4 564
4 680
4 717
4 725
4 750
4 771
4 866
4 995
5 349
5 423
5 426
5 487
5 529
5 549
5 565
5 681
5 718
5 726
5 751
5 772
5 867
5 996
6 350
6 424
6 427
6 488
6 530
6 550
6 566
6 682
6 719
6 727
6 752
6 773
6 868
6 997
7 351
7 425
7 428
7 489
7 531
7 551
7 567
7 683
7 720
7 728
7 753
7 774
7 869
7 998
8 352
8 426
8 429
8 490
8 532
8 552
8 568
8 666
8 684
8 721
8 729
8 754
8 775
8 870
9 353
9 427
9 430
9 491
9 533
9 553
9 569
9 667
9 685
9 722
9 730
9 755
9 776
9 871
10 354
10 428
10 431
10 492
10 534
10 554
10 570
10 668
10 686
10 723
10 731
10 756
10 777
10 872
11 355
11 429
11 432
11 493
11 535
11 555
11 571
11 669
11 687
11 724
11 732
11 757
11 778
11 873
12 356
12 430
12 433
12 494
12 536
12 556
12 572
12 670
12 688
12 725
12 733
12 758
12 779
12 874
13 357
13 431
13 434
13 495
13 537
13 557
13 573
13 671
13 689
13 726
13 734
13 759
13 780
13 875
14 358
14 432
14 435
14 496
14 538
14 558
14 574
14 672
14 690
14 727
14 735
14 760
14 781
14 876
15 359
15 433
15 436
15 497
15 539
15 559
15 575
15 673
15 691
15 728
15 736
15 761
15 782
15 877
16 360
16 434
16 437
16 498
16 540
16 560
16 576
16 674
16 692
16 729
16 737
16 762
16 783
16 878
17 361
17 435
17 438
17 499
17 541
17 561
17 577
17 675
17 693
17 730
17 738
17 763
17 784
17 879
18 362
18 436
18 439
18 500
18 542
18 562
18 578
18 676
18 694
18 731
18 739
18 764
18 785
18 880
19 363
19 437
19 440
19 501
19 543
19 563
19 579
19 677
19 695
19 732
19 740
19 765
19 786
19 881
20 364
20 438
20 441
20 502
20 544
20 564
20 580
20 678
20 696
20 733
20 741
20 766
20 787
20 882
21 365
21 439
21 442
21 503
21 545
21 565
21 581
21 679
21 697
21 734
21 742
21 767
21 788
21 883
22 366
22 440
22 443
22 504
22 546
22 566
22 582
22 680
22 698
22 735
22 743
22 768
22 789
22 884
23 367
23 441
23 444
23 505
23 547
23 567
23 583
23 681
23 699
23 736
23 744
23 769
23 790
23 885
24 368
24 442
24 445
24 506
24 548
24 568
24 584
24 682
24 700
24 737
24 745
24 770
24 791
24 886
25 369
25 443
25 446
25 507
25 549
25 569
25 585
25 683
25 701
25 738
25 746
25 771
25 792
25 887
26 370
26 444
26 447
26 508
26 550
26 570
26 586
26 684
26 702
26 739
26 747
26 772
26 793
26 888
27 371
27 445
27 448
27 509
27 551
27 571
27 587
27 685
27 703
27 740
27 748
27 773
27 794
27 889
28 372
28 446
28 449
28 510
28 552
28 572
28 588
28 686
28 704
28 741
28 749
28 774
28 795
28 890
29 373
29 447
29 450
29 511
29 553
29 573
29 589
29 687
29 705
29 742
29 750
29 775
29 796
29 891
30 374
30 448
30 451
30 512
30 554
30 574
30 590
30 688
30 706
30 743
30 751
30 776
30 797
30 892
31 375
31 449
31 452
31 513
31 555
31 575
31 591
31 689
31 707
31 744
31 752
31 777
31 798
31 893
32 376
32 450
32 453
32 514
32 556
32 576
32 592
32 690
32 708
32 745
32 753
32 778
32 799
32 894
33 377
33 451
33 454
33 515
33 557
33 577
33 593
33 691
33 709
33 746
33 754
33 779
33 800
33 895
34 378
34 452
34 455
34 516
34 558
34 578
34 594
34 692
34 710
34 747
34 755
34 780
34 801
34 896
35 379
35 453
35 456
35 517
35 559
35 579
35 595
35 693
35 711
35 748
35 756
35 781
35 802
35 897
36 380
36 454
36 457
36 518
36 560
36 580
36 596
36 694
36 712
36 749
36 757
36 782
36 803
36 898
37 381
37 455
37 458
37 519
37 561
37 581
37 597
37 695
37 713
37 750
37 758
37 783
37 804
37 899
38 382
38 456
38 459
38 520
38 562
38 582
38 598
38 696
38 714
38 751
38 759
38 784
38 805
38 900
39 383
39 457
39 460
39 521
39 563
39 583
39 599
39 697
39 715
39 752
39 760
39 785
39 806
39 901
40 384
40 458
40 461
40 522
40 564
40 584
40 600
40 698
40 716
40 753
40 761
40 786
40 807
40 902
41 385
41 459
41 462
41 523
41 565
41 585
41 601
41 699
41 717
41 754
41 762
41 787
41 808
41 903
42 386
42 460
42 463
42 524
42 566
42 586
42 602
42 700
42 718
42 755
42 763
42 788
42 809
42 904
43 387
43 461
43 464
43 525
43 567
43 587
43 603
43 701
43 719
43 756
43 764
43 789
43 810
43 905
44 388
44 462
44 465
44 526
44 568
44 588
44 604
44 702
44 720
44 757
44 765
44 790
44 811
44 906
45 389
45 463
45 466
45 527
45 569
45 589
45 605
45 703
45 721
45 758
45 766
45 791
45 812
45 907
46 390
46 464
46 467
46 528
46 570
46 590
46 606
46 704
46 722
46 759
46 767
46 792
46 813
46 908
47 391
47 465
47 468
47 529
47 571
47 591
47 607
47 705
47 723
47 760
47 768
47 793
47 814
47 909
48 392
48 466
48 469
48 530
48 572
48 592
48 608
48 706
48 724
48 761
48 769
48 794
48 815
48 910
49 393
49 467
49 470
49 531
49 573
49 593
49 609
49 707
49 725
49 762
49 770
49 795
49 816
49 911
50 394
50 468
50 471
50 532
50 574
50 594
50 610
50 708
50 726
50 763
50 771
50 796
50 817
50 912
51 395
51 469
51 472
51 533
51 575
51 595
51 611
51 709
51 727
51 764
51 772
51 797
51 818
51 913
52 396
52 470
52 473
52 534
52 576
52 596
52 612
52 710
52 728
52 765
52 773
52 798
52 819
52 914
53 397
53 471
53 474
53 535
53 577
53 597
53 613
53 711
53 729
53 766
53 774
53 799
53 820
53 915
54 398
54 472
54 475
54 536
54 578
54 598
54 614
54 712
54 730
54 767
54 775
54 800
54 821
54 916
55 399
55 473
55 476
55 537
55 579
55 599
55 615
55 713
55 731
55 768
55 776
55 801
55 822
55 917
56 400
56 474
56 477
56 538
56 580
56 600
56 616
56 714
56 732
56 769
56 777
56 802
56 823
56 918
57 401
57 475
57 478
57 539
57 581
57 601
57 617
57 715
57 733
57 770
57 778
57 803
57 824
57 919
58 402
58 476
58 479
58 540
58 582
58 602
58 618
58 716
58 734
58 771
58 779
58 804
58 825
58 920
59 403
59 477
59 480
59 541
59 583
59 603
59 619
59 717
59 735
59 772
59 780
59 805
59 826
59 921
60 404
60 478
60 481
60 542
60 584
60 604
60 620
60 718
60 736
60 773
60 781
60 806
60 827
60 922
61 405
61 479
61 482
61 543
61 585
61 605
61 621
61 719
61 737
61 774
61 782
61 807
61 828
61 923
62 406
62 480
62 483
62 544
62 586
62 606
62 622
62 720
62 738
62 775
62 783
62 808
62 829
62 924
63 407
63 481
63 484
63 545
63 587
63 607
63 623
63 721
63 739
63 776
63 784
63 809
63 830
63 925
64 408
64 482
64 485
64 546
64 588
64 608
64 624
64 722
64 740
64 777
64 785
64 810
64 831
64 926
65 409
65 483
65 486
65 547
65 589
65 609
65 625
65 723
65 741
65 778
65 786
65 811
65 832
65 927
66 410
66 484
66 487
66 548
66 590
66 610
66 626
66 724
66 742
66 779
66 787
66 812
66 833
66 928
67 411
67 485
67 488
67 549
67 591
67 611
67 627
67 725
67 743
67 780
67 788
67 813
67 834
67 929
68 412
68 486
68 489
68 550
68 592
68 612
68 628
68 726
68 744
68 781
68 789
68 814
68 835
68 930
69 413
69 487
69 490
69 551
69 593
69 613
69 629
69 727
69 745
69 782
69 790
69 815
69 836
69 931
70 414
70 488
70 491
70 552
70 594
70 614
70 630
70 728
70 746
70 783
70 791
70 816
70 837
70 932
71 415
71 489
71 492
71 553
71 595
71 615
71 631
71 729
71 747
71 784
71 792
71 817
71 838
71 933
72 416
72 490
72 493
72 554
72 596
72 616
72 632
72 730
72 748
72 785
72 793
72 818
72 839
72 934
73 417
73 491
73 494
73 555
73 597
73 617
73 633
73 731
73 749
73 786
73 794
73 819
73 840
73 935
74 418
74 492
74 495
74 556
74 598
74 618
74 634
74 732
74 750
74 787
74 795
74 820
74 841
74 936
75 419
75 493
75 496
75 557
75 599
75 619
75 635
75 733
75 751
75 788
75 796
75 821
75 842
75 937
76 420
76 494
76 497
76 558
76 600
76 620
76 636
76 734
76 752
76 789
76 797
76 822
76 843
76 938
77 421
77 495
77 498
77 559
77 601
77 621
77 637
77 735
77 753
77 790
77 798
77 823
77 844
77 939
78 422
78 496
78 499
78 560
78 602
78 622
78 638
78 736
78 754
78 791
78 799
78 824
78 845
78 940
79 423
79 497
79 500
79 561
79 603
79 623
79 639
79 737
79 755
79 792
79 800
79 825
79 846
79 941
80 424
80 498
80 501
80 562
80 604
80 624
80 640
80 738
80 756
80 793
80 801
80 826
80 847
80 942
81 425
81 499
81 502
81 563
81 605
81 625
81 641
81 739
81 757
81 794
81 802
81 827
81 848
81 943
82 426
82 500
82 503
82 564
82 606
82 626
82 642
82 740
82 758
82 795
82 803
82 828
82 849
82 944
83 427
83 501
83 504
83 565
83 607
83 627
83 643
83 741
83 759
83 796
83 804
83 829
83 850
83 945
84 428
84 502
84 505
84 566
84 608
84 628
84 644
84 742
84 760
84 797
84 805
84 830
84 851
84 946
85 429
85 503
85 506
85 567
85 609
85 629
85 645
85 743
85 761
85 798
85 806
85 831
85 852
85 947
86 430
86 504
86 507
86 568
86 610
86 630
86 646
86 744
86 762
86 799
86 807
86 832
86 853
86 948
87 431
87 505
87 508
87 569
87 611
87 631
87 647
87 745
87 763
87 800
87 808
87 833
87 854
87 949
88 432
88 506
88 509
88 570
88 612
88 632
88 648
88 746
88 764
88 801
88 809
88 834
88 855
88 950
89 433
89 507
89 510
89 571
89 613
89 633
89 649
89 747
89 765
89 802
89 810
89 835
89 856
89 951
90 434
90 508
90 511
90 572
90 614
90 634
90 650
90 748
90 766
90 803
90 811
90 836
90 857
90 952
91 435
91 509
91 512
91 573
91 615
91 635
91 651
91 749
91 767
91 804
91 812
91 837
91 858
91 953
92 436
92 510
92 513
92 574
92 616
92 636
92 652
92 750
92 768
92 805
92 813
92 838
92 859
92 954
93 437
93 511
93 514
93 575
93 617
93 637
93 653
93 751
93 769
93 806
93 814
93 839
93 860
93 955
94 438
94 512
94 515
94 576
94 618
94 638
94 654
94 752
94 770
94 807
94 815
94 840
94 861
94 956
95 439
95 513
95 516
95 577
95 619
95 639
95 655
95 753
95 771
95 808
95 816
95 841
95 862
95 957
96 440
96 514
96 517
96 578
96 620
96 640
96 656
96 754
96 772
96 809
96 817
96 842
96 863
96 958
97 441
97 515
97 518
97 579
97 621
97 641
97 657
97 755
97 773
97 810
97 818
97 843
97 864
97 959
98 442
98 516
98 519
98 580
98 622
98 642
98 658
98 756
98 774
98 811
98 819
98 844
98 865
98 960
99 443
99 517
99 520
99 581
99 623
99 643
99 659
99 757
99 775
99 812
99 820
99 845
99 866
99 961
100 444
100 518
100 521
100 582
100 624
100 644
100 660
100 758
100 776
100 813
100 821
100 846
100 867
100 962
101 445
101 519
101 522
101 583
101 625
101 645
101 661
101 759
101 777
101 814
101 822
101 847
101 868
101 963
102 446
102 520
102 523
102 584
102 626
102 646
102 662
102 760
102 778
102 815
102 823
102 848
102 869
102 964
103 447
103 521
103 524
103 585
103 627
103 647
103 663
103 761
103 779
103 816
103 824
103 849
103 870
103 965
104 448
104 522
104 525
104 586
104 628
104 648
104 664
104 762
104 780
104 817
104 825
104 850
104 871
104 966
105 449
105 523
105 526
105 587
105 629
105 649
105 665
105 763
105 781
105 818
105 826
105 851
105 872
105 967
106 333
106 450
106 524
106 527
106 588
106 630
106 650
106 764
106 782
106 819
106 827
106 852
106 873
106 968
107 334
107 451
107 525
107 528
107 589
107 631
107 651
107 765
107 783
107 820
107 828
107 853
107 874
107 969
108 335
108 452
108 526
108 529
108 590
108 632
108 652
108 766
108 784
108 821
108 829
108 854
108 875
108 970
109 336
109 453
109 527
109 530
109 591
109 633
109 653
109 767
109 785
109 822
109 830
109 855
109 876
109 971
110 337
110 454
110 528
110 531
110 592
110 634
110 654
110 768
110 786
110 823
110 831
110 856
110 877
110 972
111 338
111 455
111 529
111 532
111 593
111 635
111 655
111 769
111 787
111 824
111 832
111 857
111 878
111 973
112 339
112 456
112 530
112 533
112 594
112 636
112 656
112 770
112 788
112 825
112 833
112 858
112 879
112 974
113 340
113 457
113 531
113 534
113 595
113 637
113 657
113 771
113 789
113 826
113 834
113 859
113 880
113 975
114 341
114 458
114 532
114 535
114 596
114 638
114 658
114 772
114 790
114 827
114 835
114 860
114 881
114 976
115 342
115 459
115 533
115 536
115 597
115 639
115 659
115 773
115 791
115 828
115 836
115 861
115 882
115 977
116 343
116 460
116 534
116 537
116 598
116 640
116 660
116 774
116 792
116 829
116 837
116 862
116 883
116 978
117 344
117 461
117 535
117 538
117 599
117 641
117 661
117 775
117 793
117 830
117 838
117 863
117 884
117 979
118 345
118 462
118 536
118 539
118 600
118 642
118 662
118 776
118 794
118 831
118 839
118 864
118 885
118 980
119 346
119 463
119 537
119 540
119 601
119 643
119 663
119 777
119 795
119 832
119 840
119 865
119 886
119 981
120 347
120 464
120 538
120 541
120 602
120 644
120 664
120 778
120 796
120 833
120 841
120 866
120 887
120 982
121 348
121 465
121 539
121 542
121 603
121 645
121 665
121 779
121 797
121 834
121 842
121 867
121 888
121 983
122 333
122 349
122 466
122 540
122 543
122 604
122 646
122 780
122 798
122 835
122 843
122 868
122 889
122 984
123 334
123 350
123 467
123 541
123 544
123 605
123 647
123 781
123 799
123 836
123 844
123 869
123 890
123 985
124 335
124 351
124 468
124 542
124 545
124 606
124 648
124 782
124 800
124 837
124 845
124 870
124 891
124 986
125 336
125 352
125 469
125 543
125 546
125 607
125 649
125 783
125 801
125 838
125 846
125 871
125 892
125 987
126 337
126 353
126 470
126 544
126 547
126 608
126 650
126 784
126 802
126 839
126 847
126 872
126 893
126 988
127 338
127 354
127 471
127 545
127 548
127 609
127 651
127 785
127 803
127 840
127 848
127 873
127 894
127 989
128 339
128 355
128 472
128 546
128 549
128 610
128 652
128 786
128 804
128 841
128 849
128 874
128 895
128 990
129 340
129 356
129 473
129 547
129 550
129 611
129 653
129 787
129 805
129 842
129 850
129 875
129 896
129 991
130 341
130 357
130 474
130 548
130 551
130 612
130 654
130 788
130 806
130 843
130 851
130 876
130 897
130 992
131 342
131 358
131 475
131 549
131 552
131 613
131 655
131 789
131 807
131 844
131 852
131 877
131 898
131 993
132 343
132 359
132 476
132 550
132 553
132 614
132 656
132 790
132 808
132 845
132 853
132 878
132 899
132 994
133 344
133 360
133 477
133 551
133 554
133 615
133 657
133 791
133 809
133 846
133 854
133 879
133 900
133 995
134 345
134 361
134 478
134 552
134 555
134 616
134 658
134 792
134 810
134 847
134 855
134 880
134 901
134 996
135 346
135 362
135 479
135 553
135 556
135 617
135 659
135 793
135 811
135 848
135 856
135 881
135 902
135 997
136 347
136 363
136 480
136 554
136 557
136 618
136 660
136 794
136 812
136 849
136 857
136 882
136 903
136 998
137 348
137 364
137 481
137 555
137 558
137 619
137 661
137 666
137 795
137 813
137 850
137 858
137 883
137 904
138 349
138 365
138 482
138 556
138 559
138 620
138 662
138 667
138 796
138 814
138 851
138 859
138 884
138 905
139 350
139 366
139 483
139 557
139 560
139 621
139 663
139 668
139 797
139 815
139 852
139 860
139 885
139 906
140 351
140 367
140 484
140 558
140 561
140 622
140 664
140 669
140 798
140 816
140 853
140 861
140 886
140 907
141 352
141 368
141 485
141 559
141 562
141 623
141 665
141 670
141 799
141 817
141 854
141 862
141 887
141 908
142 333
142 353
142 369
142 486
142 560
142 563
142 624
142 671
142 800
142 818
142 855
142 863
142 888
142 909
143 334
143 354
143 370
143 487
143 561
143 564
143 625
143 672
143 801
143 819
143 856
143 864
143 889
143 910
144 335
144 355
144 371
144 488
144 562
144 565
144 626
144 673
144 802
144 820
144 857
144 865
144 890
144 911
145 336
145 356
145 372
145 489
145 563
145 566
145 627
145 674
145 803
145 821
145 858
145 866
145 891
145 912
146 337
146 357
146 373
146 490
146 564
146 567
146 628
146 675
146 804
146 822
146 859
146 867
146 892
146 913
147 338
147 358
147 374
147 491
147 565
147 568
147 629
147 676
147 805
147 823
147 860
147 868
147 893
147 914
148 339
148 359
148 375
148 492
148 566
148 569
148 630
148 677
148 806
148 824
148 861
148 869
148 894
148 915
149 340
149 360
149 376
149 493
149 567
149 570
149 631
149 678
149 807
149 825
149 862
149 870
149 895
149 916
150 341
150 361
150 377
150 494
150 568
150 571
150 632
150 679
150 808
150 826
150 863
150 871
150 896
150 917
151 342
151 362
151 378
151 495
151 569
151 572
151 633
151 680
151 809
151 827
151 864
151 872
151 897
151 918
152 343
152 363
152 379
152 496
152 570
152 573
152 634
152 681
152 810
152 828
152 865
152 873
152 898
152 919
153 344
153 364
153 380
153 497
153 571
153 574
153 635
153 682
153 811
153 829
153 866
153 874
153 899
153 920
154 345
154 365
154 381
154 498
154 572
154 575
154 636
154 683
154 812
154 830
154 867
154 875
154 900
154 921
155 346
155 366
155 382
155 499
155 573
155 576
155 637
155 684
155 813
155 831
155 868
155 876
155 901
155 922
156 347
156 367
156 383
156 500
156 574
156 577
156 638
156 685
156 814
156 832
156 869
156 877
156 902
156 923
157 348
157 368
157 384
157 501
157 575
157 578
157 639
157 686
157 815
157 833
157 870
157 878
157 903
157 924
158 349
158 369
158 385
158 502
158 576
158 579
158 640
158 687
158 816
158 834
158 871
158 879
158 904
158 925
159 350
159 370
159 386
159 503
159 577
159 580
159 641
159 688
159 817
159 835
159 872
159 880
159 905
159 926
160 351
160 371
160 387
160 504
160 578
160 581
160 642
160 689
160 818
160 836
160 873
160 881
160 906
160 927
161 352
161 372
161 388
161 505
161 579
161 582
161 643
161 690
161 819
161 837
161 874
161 882
161 907
161 928
162 353
162 373
162 389
162 506
162 580
162 583
162 644
162 691
162 820
162 838
162 875
162 883
162 908
162 929
163 354
163 374
163 390
163 507
163 581
163 584
163 645
163 692
163 821
163 839
163 876
163 884
163 909
163 930
164 355
164 375
164 391
164 508
164 582
164 585
164 646
164 693
164 822
164 840
164 877
164 885
164 910
164 931
165 356
165 376
165 392
165 509
165 583
165 586
165 647
165 694
165 823
165 841
165 878
165 886
165 911
165 932
166 357
166 377
166 393
166 510
166 584
166 587
166 648
166 695
166 824
166 842
166 879
166 887
166 912
166 933
167 358
167 378
167 394
167 511
167 585
167 588
167 649
167 696
167 825
167 843
167 880
167 888
167 913
167 934
168 359
168 379
168 395
168 512
168 586
168 589
168 650
168 697
168 826
168 844
168 881
168 889
168 914
168 935
169 360
169 380
169 396
169 513
169 587
169 590
169 651
169 698
169 827
169 845
169 882
169 890
169 915
169 936
170 361
170 381
170 397
170 514
170 588
170 591
170 652
170 699
170 828
170 846
170 883
170 891
170 916
170 937
171 362
171 382
171 398
171 515
171 589
171 592
171 653
171 700
171 829
171 847
171 884
171 892
171 917
171 938
172 363
172 383
172 399
172 516
172 590
172 593
172 654
172 701
172 830
172 848
172 885
172 893
172 918
172 939
173 364
173 384
173 400
173 517
173 591
173 594
173 655
173 702
173 831
173 849
173 886
173 894
173 919
173 940
174 365
174 385
174 401
174 518
174 592
174 595
174 656
174 703
174 832
174 850
174 887
174 895
174 920
174 941
175 366
175 386
175 402
175 519
175 593
175 596
175 657
175 704
175 833
175 851
175 888
175 896
175 921
175 942
176 367
176 387
176 403
176 520
176 594
176 597
176 658
176 705
176 834
176 852
176 889
176 897
176 922
176 943
177 368
177 388
177 404
177 521
177 595
177 598
177 659
177 706
177 835
177 853
177 890
177 898
177 923
177 944
178 369
178 389
178 405
178 522
178 596
178 599
178 660
178 707
178 836
178 854
178 891
178 899
178 924
178 945
179 370
179 390
179 406
179 523
179 597
179 600
179 661
179 708
179 837
179 855
179 892
179 900
179 925
179 946
180 371
180 391
180 407
180 524
180 598
180 601
180 662
180 709
180 838
180 856
180 893
180 901
180 926
180 947
181 372
181 392
181 408
181 525
181 599
181 602
181 663
181 710
181 839
181 857
181 894
181 902
181 927
181 948
182 373
182 393
182 409
182 526
182 600
182 603
182 664
182 711
182 840
182 858
182 895
182 903
182 928
182 949
183 374
183 394
183 410
183 527
183 601
183 604
183 665
183 712
183 841
183 859
183 896
183 904
183 929
183 950
184 333
184 375
184 395
184 411
184 528
184 602
184 605
184 713
184 842
184 860
184 897
184 905
184 930
184 951
185 334
185 376
185 396
185 412
185 529
185 603
185 606
185 714
185 843
185 861
185 898
185 906
185 931
185 952
186 335
186 377
186 397
186 413
186 530
186 604
186 607
186 715
186 844
186 862
186 899
186 907
186 932
186 953
187 336
187 378
187 398
187 414
187 531
187 605
187 608
187 716
187 845
187 863
187 900
187 908
187 933
187 954
188 337
188 379
188 399
188 415
188 532
188 606
188 609
188 717
188 846
188 864
188 901
188 909
188 934
188 955
189 338
189 380
189 400
189 416
189 533
189 607
189 610
189 718
189 847
189 865
189 902
189 910
189 935
189 956
190 339
190 381
190 401
190 417
190 534
190 608
190 611
190 719
190 848
190 866
190 903
190 911
190 936
190 957
191 340
191 382
191 402
191 418
191 535
191 609
191 612
191 720
191 849
191 867
191 904
191 912
191 937
191 958
192 341
192 383
192 403
192 419
192 536
192 610
192 613
192 721
192 850
192 868
192 905
192 913
192 938
192 959
193 342
193 384
193 404
193 420
193 537
193 611
193 614
193 722
193 851
193 869
193 906
193 914
193 939
193 960
194 343
194 385
194 405
194 421
194 538
194 612
194 615
194 723
194 852
194 870
194 907
194 915
194 940
194 961
195 344
195 386
195 406
195 422
195 539
195 613
195 616
195 724
195 853
195 871
195 908
195 916
195 941
195 962
196 345
196 387
196 407
196 423
196 540
196 614
196 617
196 725
196 854
196 872
196 909
196 917
196 942
196 963
197 346
197 388
197 408
197 424
197 541
197 615
197 618
197 726
197 855
197 873
197 910
197 918
197 943
197 964
198 347
198 389
198 409
198 425
198 542
198 616
198 619
198 727
198 856
198 874
198 911
198 919
198 944
198 965
199 348
199 390
199 410
199 426
199 543
199 617
199 620
199 728
199 857
199 875
199 912
199 920
199 945
199 966
200 349
200 391
200 411
200 427
200 544
200 618
200 621
200 729
200 858
200 876
200 913
200 921
200 946
200 967
201 350
201 392
201 412
201 428
201 545
201 619
201 622
201 730
201 859
201 877
201 914
201 922
201 947
201 968
202 351
202 393
202 413
202 429
202 546
202 620
202 623
202 731
202 860
202 878
202 915
202 923
202 948
202 969
203 352
203 394
203 414
203 430
203 547
203 621
203 624
203 732
203 861
203 879
203 916
203 924
203 949
203 970
204 353
204 395
204 415
204 431
204 548
204 622
204 625
204 733
204 862
204 880
204 917
204 925
204 950
204 971
205 354
205 396
205 416
205 432
205 549
205 623
205 626
205 734
205 863
205 881
205 918
205 926
205 951
205 972
206 355
206 397
206 417
206 433
206 550
206 624
206 627
206 735
206 864
206 882
206 919
206 927
206 952
206 973
207 356
207 398
207 418
207 434
207 551
207 625
207 628
207 736
207 865
207 883
207 920
207 928
207 953
207 974
208 357
208 399
208 419
208 435
208 552
208 626
208 629
208 737
208 866
208 884
208 921
208 929
208 954
208 975
209 358
209 400
209 420
209 436
209 553
209 627
209 630
209 738
209 867
209 885
209 922
209 930
209 955
209 976
210 359
210 401
210 421
210 437
210 554
210 628
210 631
210 739
210 868
210 886
210 923
210 931
210 956
210 977
211 360
211 402
211 422
211 438
211 555
211 629
211 632
211 740
211 869
211 887
211 924
211 932
211 957
211 978
212 361
212 403
212 423
212 439
212 556
212 630
212 633
212 741
212 870
212 888
212 925
212 933
212 958
212 979
213 362
213 404
213 424
213 440
213 557
213 631
213 634
213 742
213 871
213 889
213 926
213 934
213 959
213 980
214 363
214 405
214 425
214 441
214 558
214 632
214 635
214 743
214 872
214 890
214 927
214 935
214 960
214 981
215 364
215 406
215 426
215 442
215 559
215 633
215 636
215 744
215 873
215 891
215 928
215 936
215 961
215 982
216 365
216 407
216 427
216 443
216 560
216 634
216 637
216 745
216 874
216 892
216 929
216 937
216 962
216 983
217 366
217 408
217 428
217 444
217 561
217 635
217 638
217 746
217 875
217 893
217 930
217 938
217 963
217 984
218 367
218 409
218 429
218 445
218 562
218 636
218 639
218 747
218 876
218 894
218 931
218 939
218 964
218 985
219 368
219 410
219 430
219 446
219 563
219 637
219 640
219 748
219 877
219 895
219 932
219 940
219 965
219 986
220 369
220 411
220 431
220 447
220 564
220 638
220 641
220 749
220 878
220 896
220 933
220 941
220 966
220 987
221 370
221 412
221 432
221 448
221 565
221 639
221 642
221 750
221 879
221 897
221 934
221 942
221 967
221 988
222 371
222 413
222 433
222 449
222 566
222 640
222 643
222 751
222 880
222 898
222 935
222 943
222 968
222 989
223 372
223 414
223 434
223 450
223 567
223 641
223 644
223 752
223 881
223 899
223 936
223 944
223 969
223 990
224 373
224 415
224 435
224 451
224 568
224 642
224 645
224 753
224 882
224 900
224 937
224 945
224 970
224 991
225 374
225 416
225 436
225 452
225 569
225 643
225 646
225 754
225 883
225 901
225 938
225 946
225 971
225 992
226 375
226 417
226 437
226 453
226 570
226 644
226 647
226 755
226 884
226 902
226 939
226 947
226 972
226 993
227 376
227 418
227 438
227 454
227 571
227 645
227 648
227 756
227 885
227 903
227 940
227 948
227 973
227 994
228 377
228 419
228 439
228 455
228 572
228 646
228 649
228 757
228 886
228 904
228 941
228 949
228 974
228 995
229 378
229 420
229 440
229 456
229 573
229 647
229 650
229 758
229 887
229 905
229 942
229 950
229 975
229 996
230 379
230 421
230 441
230 457
230 574
230 648
230 651
230 759
230 888
230 906
230 943
230 951
230 976
230 997
231 380
231 422
231 442
231 458
231 575
231 649
231 652
231 760
231 889
231 907
231 944
231 952
231 977
231 998
232 381
232 423
232 443
232 459
232 576
232 650
232 653
232 666
232 761
232 890
232 908
232 945
232 953
232 978
233 382
233 424
233 444
233 460
233 577
233 651
233 654
233 667
233 762
233 891
233 909
233 946
233 954
233 979
234 383
234 425
234 445
234 461
234 578
234 652
234 655
234 668
234 763
234 892
234 910
234 947
234 955
234 980
235 384
235 426
235 446
235 462
235 579
235 653
235 656
235 669
235 764
235 893
235 911
235 948
235 956
235 981
236 385
236 427
236 447
236 463
236 580
236 654
236 657
236 670
236 765
236 894
236 912
236 949
236 957
236 982
237 386
237 428
237 448
237 464
237 581
237 655
237 658
237 671
237 766
237 895
237 913
237 950
237 958
237 983
238 387
238 429
238 449
238 465
238 582
238 656
238 659
238 672
238 767
238 896
238 914
238 951
238 959
238 984
239 388
239 430
239 450
239 466
239 583
239 657
239 660
239 673
239 768
239 897
239 915
239 952
239 960
239 985
240 389
240 431
240 451
240 467
240 584
240 658
240 661
240 674
240 769
240 898
240 916
240 953
240 961
240 986
241 390
241 432
241 452
241 468
241 585
241 659
241 662
241 675
241 770
241 899
241 917
241 954
241 962
241 987
242 391
242 433
242 453
242 469
242 586
242 660
242 663
242 676
242 771
242 900
242 918
242 955
242 963
242 988
243 392
243 434
243 454
243 470
243 587
243 661
243 664
243 677
243 772
243 901
243 919
243 956
243 964
243 989
244 393
244 435
244 455
244 471
244 588
244 662
244 665
244 678
244 773
244 902
244 920
244 957
244 965
244 990
245 333
245 394
245 436
245 456
245 472
245 589
245 663
245 679
245 774
245 903
245 921
245 958
245 966
245 991
246 334
246 395
246 437
246 457
246 473
246 590
246 664
246 680
246 775
246 904
246 922
246 959
246 967
246 992
247 335
247 396
247 438
247 458
247 474
247 591
247 665
247 681
247 776
247 905
247 923
247 960
247 968
247 993
248 333
248 336
248 397
248 439
248 459
248 475
248 592
248 682
248 777
248 906
248 924
248 961
248 969
248 994
249 334
249 337
249 398
249 440
249 460
249 476
249 593
249 683
249 778
249 907
249 925
249 962
249 970
249 995
250 335
250 338
250 399
250 441
250 461
250 477
250 594
250 684
250 779
250 908
250 926
250 963
250 971
250 996
251 336
251 339
251 400
251 442
251 462
251 478
251 595
251 685
251 780
251 909
251 927
251 964
251 972
251 997
252 337
252 340
252 401
252 443
252 463
252 479
252 596
252 686
252 781
252 910
252 928
252 965
252 973
252 998
253 338
253 341
253 402
253 444
253 464
253 480
253 597
253 666
253 687
253 782
253 911
253 929
253 966
253 974
254 339
254 342
254 403
254 445
254 465
254 481
254 598
254 667
254 688
254 783
254 912
254 930
254 967
254 975
255 340
255 343
255 404
255 446
255 466
255 482
255 599
255 668
255 689
255 784
255 913
255 931
255 968
255 976
256 341
256 344
256 405
256 447
256 467
256 483
256 600
256 669
256 690
256 785
256 914
256 932
256 969
256 977
257 342
257 345
257 406
257 448
257 468
257 484
257 601
257 670
257 691
257 786
257 915
257 933
257 970
257 978
258 343
258 346
258 407
258 449
258 469
258 485
258 602
258 671
258 692
258 787
258 916
258 934
258 971
258 979
259 344
259 347
259 408
259 450
259 470
259 486
259 603
259 672
259 693
259 788
259 917
259 935
259 972
259 980
260 345
260 348
260 409
260 451
260 471
260 487
260 604
260 673
260 694
260 789
260 918
260 936
260 973
260 981
261 346
261 349
261 410
261 452
261 472
261 488
261 605
261 674
261 695
261 790
261 919
261 937
261 974
261 982
262 347
262 350
262 411
262 453
262 473
262 489
262 606
262 675
262 696
262 791
262 920
262 938
262 975
262 983
263 348
263 351
263 412
263 454
263 474
263 490
263 607
263 676
263 697
263 792
263 921
263 939
263 976
263 984
264 349
264 352
264 413
264 455
264 475
264 491
264 608
264 677
264 698
264 793
264 922
264 940
264 977
264 985
265 350
265 353
265 414
265 456
265 476
265 492
265 609
265 678
265 699
265 794
265 923
265 941
265 978
265 986
266 351
266 354
266 415
266 457
266 477
266 493
266 610
266 679
266 700
266 795
266 924
266 942
266 979
266 987
267 352
267 355
267 416
267 458
267 478
267 494
267 611
267 680
267 701
267 796
267 925
267 943
267 980
267 988
268 353
268 356
268 417
268 459
268 479
268 495
268 612
268 681
268 702
268 797
268 926
268 944
268 981
268 989
269 354
269 357
269 418
269 460
269 480
269 496
269 613
269 682
269 703
269 798
269 927
269 945
269 982
269 990
270 355
270 358
270 419
270 461
270 481
270 497
270 614
270 683
270 704
270 799
270 928
270 946
270 983
270 991
271 356
271 359
271 420
271 462
271 482
271 498
271 615
271 684
271 705
271 800
271 929
271 947
271 984
271 992
272 357
272 360
272 421
272 463
272 483
272 499
272 616
272 685
272 706
272 801
272 930
272 948
272 985
272 993
273 358
273 361
273 422
273 464
273 484
273 500
273 617
273 686
273 707
273 802
273 931
273 949
273 986
273 994
274 359
274 362
274 423
274 465
274 485
274 501
274 618
274 687
274 708
274 803
274 932
274 950
274 987
274 995
275 360
275 363
275 424
275 466
275 486
275 502
275 619
275 688
275 709
275 804
275 933
275 951
275 988
275 996
276 361
276 364
276 425
276 467
276 487
276 503
276 620
276 689
276 710
276 805
276 934
276 952
276 989
276 997
277 362
277 365
277 426
277 468
277 488
277 504
277 621
277 690
277 711
277 806
277 935
277 953
277 990
277 998
278 363
278 366
278 427
278 469
278 489
278 505
278 622
278 666
278 691
278 712
278 807
278 936
278 954
278 991
279 364
279 367
279 428
279 470
279 490
279 506
279 623
279 667
279 692
279 713
279 808
279 937
279 955
279 992
280 365
280 368
280 429
280 471
280 491
280 507
280 624
280 668
280 693
280 714
280 809
280 938
280 956
280 993
281 366
281 369
281 430
281 472
281 492
281 508
281 625
281 669
281 694
281 715
281 810
281 939
281 957
281 994
282 367
282 370
282 431
282 473
282 493
282 509
282 626
282 670
282 695
282 716
282 811
282 940
282 958
282 995
283 368
283 371
283 432
283 474
283 494
283 510
283 627
283 671
283 696
283 717
283 812
283 941
283 959
283 996
284 369
284 372
284 433
284 475
284 495
284 511
284 628
284 672
284 697
284 718
284 813
284 942
284 960
284 997
285 370
285 373
285 434
285 476
285 496
285 512
285 629
285 673
285 698
285 719
285 814
285 943
285 961
285 998
286 371
286 374
286 435
286 477
286 497
286 513
286 630
286 666
286 674
286 699
286 720
286 815
286 944
286 962
287 372
287 375
287 436
287 478
287 498
287 514
287 631
287 667
287 675
287 700
287 721
287 816
287 945
287 963
288 373
288 376
288 437
288 479
288 499
288 515
288 632
288 668
288 676
288 701
288 722
288 817
288 946
288 964
289 374
289 377
289 438
289 480
289 500
289 516
289 633
289 669
289 677
289 702
289 723
289 818
289 947
289 965
290 375
290 378
290 439
290 481
290 501
290 517
290 634
290 670
290 678
290 703
290 724
290 819
290 948
290 966
291 376
291 379
291 440
291 482
291 502
291 518
291 635
291 671
291 679
291 704
291 725
291 820
291 949
291 967
292 377
292 380
292 441
292 483
292 503
292 519
292 636
292 672
292 680
292 705
292 726
292 821
292 950
292 968
293 378
293 381
293 442
293 484
293 504
293 520
293 637
293 673
293 681
293 706
293 727
293 822
293 951
293 969
294 379
294 382
294 443
294 485
294 505
294 521
294 638
294 674
294 682
294 707
294 728
294 823
294 952
294 970
295 380
295 383
295 444
295 486
295 506
295 522
295 639
295 675
295 683
295 708
295 729
295 824
295 953
295 971
296 381
296 384
296 445
296 487
296 507
296 523
296 640
296 676
296 684
296 709
296 730
296 825
296 954
296 972
297 382
297 385
297 446
297 488
297 508
297 524
297 641
297 677
297 685
297 710
297 731
297 826
297 955
297 973
298 383
298 386
298 447
298 489
298 509
298 525
298 642
298 678
298 686
298 711
298 732
298 827
298 956
298 974
299 384
299 387
299 448
299 490
299 510
299 526
299 643
299 679
299 687
299 712
299 733
299 828
299 957
299 975
300 385
300 388
300 449
300 491
300 511
300 527
300 644
300 680
300 688
300 713
300 734
300 829
300 958
300 976
301 386
301 389
301 450
301 492
301 512
301 528
301 645
301 681
301 689
301 714
301 735
301 830
301 959
301 977
302 387
302 390
302 451
302 493
302 513
302 529
302 646
302 682
302 690
302 715
302 736
302 831
302 960
302 978
303 388
303 391
303 452
303 494
303 514
303 530
303 647
303 683
303 691
303 716
303 737
303 832
303 961
303 979
304 389
304 392
304 453
304 495
304 515
304 531
304 648
304 684
304 692
304 717
304 738
304 833
304 962
304 980
305 390
305 393
305 454
305 496
305 516
305 532
305 649
305 685
305 693
305 718
305 739
305 834
305 963
305 981
306 391
306 394
306 455
306 497
306 517
306 533
306 650
306 686
306 694
306 719
306 740
306 835
306 964
306 982
307 392
307 395
307 456
307 498
307 518
307 534
307 651
307 687
307 695
307 720
307 741
307 836
307 965
307 983
308 393
308 396
308 457
308 499
308 519
308 535
308 652
308 688
308 696
308 721
308 742
308 837
308 966
308 984
309 394
309 397
309 458
309 500
309 520
309 536
309 653
309 689
309 697
309 722
309 743
309 838
309 967
309 985
310 395
310 398
310 459
310 501
310 521
310 537
310 654
310 690
310 698
310 723
310 744
310 839
310 968
310 986
311 396
311 399
311 460
311 502
311 522
311 538
311 655
311 691
311 699
311 724
311 745
311 840
311 969
311 987
312 397
312 400
312 461
312 503
312 523
312 539
312 656
312 692
312 700
312 725
312 746
312 841
312 970
312 988
313 398
313 401
313 462
313 504
313 524
313 540
313 657
313 693
313 701
313 726
313 747
313 842
313 971
313 989
314 399
314 402
314 463
314 505
314 525
314 541
314 658
314 694
314 702
314 727
314 748
314 843
314 972
314 990
315 400
315 403
315 464
315 506
315 526
315 542
315 659
315 695
315 703
315 728
315 749
315 844
315 973
315 991
316 401
316 404
316 465
316 507
316 527
316 543
316 660
316 696
316 704
316 729
316 750
316 845
316 974
316 992
317 402
317 405
317 466
317 508
317 528
317 544
317 661
317 697
317 705
317 730
317 751
317 846
317 975
317 993
318 403
318 406
318 467
318 509
318 529
318 545
318 662
318 698
318 706
318 731
318 752
318 847
318 976
318 994
319 404
319 407
319 468
319 510
319 530
319 546
319 663
319 699
319 707
319 732
319 753
319 848
319 977
319 995
320 405
320 408
320 469
320 511
320 531
320 547
320 664
320 700
320 708
320 733
320 754
320 849
320 978
320 996
321 406
321 409
321 470
321 512
321 532
321 548
321 665
321 701
321 709
321 734
321 755
321 850
321 979
321 997
322 333
322 407
322 410
322 471
322 513
322 533
322 549
322 702
322 710
322 735
322 756
322 851
322 980
322 998
323 334
323 408
323 411
323 472
323 514
323 534
323 550
323 666
323 703
323 711
323 736
323 757
323 852
323 981
324 335
324 409
324 412
324 473
324 515
324 535
324 551
324 667
324 704
324 712
324 737
324 758
324 853
324 982
325 336
325 410
325 413
325 474
325 516
325 536
325 552
325 668
325 705
325 713
325 738
325 759
325 854
325 983
326 337
326 411
326 414
326 475
326 517
326 537
326 553
326 669
326 706
326 714
326 739
326 760
326 855
326 984
327 338
327 412
327 415
327 476
327 518
327 538
327 554
327 670
327 707
327 715
327 740
327 761
327 856
327 985
328 339
328 413
328 416
328 477
328 519
328 539
328 555
328 671
328 708
328 716
328 741
328 762
328 857
328 986
329 340
329 414
329 417
329 478
329 520
329 540
329 556
329 672
329 709
329 717
329 742
329 763
329 858
329 987
330 341
330 415
330 418
330 479
330 521
330 541
330 557
330 673
330 710
330 718
330 743
330 764
330 859
330 988
331 342
331 416
331 419
331 480
331 522
331 542
331 558
331 674
331 711
331 719
331 744
331 765
331 860
331 989
332 343
332 417
332 420
332 481
332 523
332 543
332 559
332 675
332 712
332 720
332 745
332 766
332 861
332 990
333 667
333 689
333 716
333 739
333 769
333 887
333 935
334 668
334 690
334 717
334 740
334 770
334 888
334 936
335 669
335 691
335 718
335 741
335 771
335 889
335 937
336 670
336 692
336 719
336 742
336 772
336 890
336 938
337 671
337 693
337 720
337 743
337 773
337 891
337 939
338 672
338 694
338 721
338 744
338 774
338 892
338 940
339 673
339 695
339 722
339 745
339 775
339 893
339 941
340 674
340 696
340 723
340 746
340 776
340 894
340 942
341 675
341 697
341 724
341 747
341 777
341 895
341 943
342 676
342 698
342 725
342 748
342 778
342 896
342 944
343 677
343 699
343 726
343 749
343 779
343 897
343 945
344 678
344 700
344 727
344 750
344 780
344 898
344 946
345 679
345 701
345 728
345 751
345 781
345 899
345 947
346 680
346 702
346 729
346 752
346 782
346 900
346 948
347 681
347 703
347 730
347 753
347 783
347 901
347 949
348 682
348 704
348 731
348 754
348 784
348 902
348 950
349 683
349 705
349 732
349 755
349 785
349 903
349 951
350 684
350 706
350 733
350 756
350 786
350 904
350 952
351 685
351 707
351 734
351 757
351 787
351 905
351 953
352 686
352 708
352 735
352 758
352 788
352 906
352 954
353 687
353 709
353 736
353 759
353 789
353 907
353 955
354 688
354 710
354 737
354 760
354 790
354 908
354 956
355 689
355 711
355 738
355 761
355 791
355 909
355 957
356 690
356 712
356 739
356 762
356 792
356 910
356 958
357 691
357 713
357 740
357 763
357 793
357 911
357 959
358 692
358 714
358 741
358 764
358 794
358 912
358 960
359 693
359 715
359 742
359 765
359 795
359 913
359 961
360 694
360 716
360 743
360 766
360 796
360 914
360 962
361 695
361 717
361 744
361 767
361 797
361 915
361 963
362 696
362 718
362 745
362 768
362 798
362 916
362 964
363 697
363 719
363 746
363 769
363 799
363 917
363 965
364 698
364 720
364 747
364 770
364 800
364 918
364 966
365 699
365 721
365 748
365 771
365 801
365 919
365 967
366 700
366 722
366 749
366 772
366 802
366 920
366 968
367 701
367 723
367 750
367 773
367 803
367 921
367 969
368 702
368 724
368 751
368 774
368 804
368 922
368 970
369 703
369 725
369 752
369 775
369 805
369 923
369 971
370 704
370 726
370 753
370 776
370 806
370 924
370 972
371 705
371 727
371 754
371 777
371 807
371 925
371 973
372 706
372 728
372 755
372 778
372 808
372 926
372 974
373 707
373 729
373 756
373 779
373 809
373 927
373 975
374 708
374 730
374 757
374 780
374 810
374 928
374 976
375 709
375 731
375 758
375 781
375 811
375 929
375 977
376 710
376 732
376 759
376 782
376 812
376 930
376 978
377 711
377 733
377 760
377 783
377 813
377 931
377 979
378 712
378 734
378 761
378 784
378 814
378 932
378 980
379 713
379 735
379 762
379 785
379 815
379 933
379 981
380 714
380 736
380 763
380 786
380 816
380 934
380 982
381 715
381 737
381 764
381 787
381 817
381 935
381 983
382 716
382 738
382 765
382 788
382 818
382 936
382 984
383 717
383 739
383 766
383 789
383 819
383 937
383 985
384 718
384 740
384 767
384 790
384 820
384 938
384 986
385 719
385 741
385 768
385 791
385 821
385 939
385 987
386 720
386 742
386 769
386 792
386 822
386 940
386 988
387 721
387 743
387 770
387 793
387 823
387 941
387 989
388 722
388 744
388 771
388 794
388 824
388 942
388 990
389 723
389 745
389 772
389 795
389 825
389 943
389 991
390 724
390 746
390 773
390 796
390 826
390 944
390 992
391 725
391 747
391 774
391 797
391 827
391 945
391 993
392 726
392 748
392 775
392 798
392 828
392 946
392 994
393 727
393 749
393 776
393 799
393 829
393 947
393 995
394 728
394 750
394 777
394 800
394 830
394 948
394 996
395 729
395 751
395 778
395 801
395 831
395 949
395 997
396 730
396 752
396 779
396 802
396 832
396 950
396 998
397 666
397 731
397 753
397 780
397 803
397 833
397 951
398 667
398 732
398 754
398 781
398 804
398 834
398 952
399 668
399 733
399 755
399 782
399 805
399 835
399 953
400 669
400 734
400 756
400 783
400 806
400 836
400 954
401 670
401 735
401 757
401 784
401 807
401 837
401 955
402 671
402 736
402 758
402 785
402 808
402 838
402 956
403 672
403 737
403 759
403 786
403 809
403 839
403 957
404 673
404 738
404 760
404 787
404 810
404 840
404 958
405 674
405 739
405 761
405 788
405 811
405 841
405 959
406 675
406 740
406 762
406 789
406 812
406 842
406 960
407 676
407 741
407 763
407 790
407 813
407 843
407 961
408 677
408 742
408 764
408 791
408 814
408 844
408 962
409 678
409 743
409 765
409 792
409 815
409 845
409 963
410 679
410 744
410 766
410 793
410 816
410 846
410 964
411 680
411 745
411 767
411 794
411 817
411 847
411 965
412 681
412 746
412 768
412 795
412 818
412 848
412 966
413 682
413 747
413 769
413 796
413 819
413 849
413 967
414 683
414 748
414 770
414 797
414 820
414 850
414 968
415 684
415 749
415 771
415 798
415 821
415 851
415 969
416 685
416 750
416 772
416 799
416 822
416 852
416 970
417 686
417 751
417 773
417 800
417 823
417 853
417 971
418 687
418 752
418 774
418 801
418 824
418 854
418 972
419 688
419 753
419 775
419 802
419 825
419 855
419 973
420 689
420 754
420 776
420 803
420 826
420 856
420 974
421 690
421 755
421 777
421 804
421 827
421 857
421 975
422 691
422 756
422 778
422 805
422 828
422 858
422 976
423 692
423 757
423 779
423 806
423 829
423 859
423 977
424 693
424 758
424 780
424 807
424 830
424 860
424 978
425 694
425 759
425 781
425 808
425 831
425 861
425 979
426 695
426 760
426 782
426 809
426 832
426 862
426 980
427 696
427 761
427 783
427 810
427 833
427 863
427 981
428 697
428 762
428 784
428 811
428 834
428 864
428 982
429 698
429 763
429 785
429 812
429 835
429 865
429 983
430 699
430 764
430 786
430 813
430 836
430 866
430 984
431 700
431 765
431 787
431 814
431 837
431 867
431 985
432 701
432 766
432 788
432 815
432 838
432 868
432 986
433 702
433 767
433 789
433 816
433 839
433 869
433 987
434 703
434 768
434 790
434 817
434 840
434 870
434 988
435 704
435 769
435 791
435 818
435 841
435 871
435 989
436 705
436 770
436 792
436 819
436 842
436 872
436 990
437 706
437 771
437 793
437 820
437 843
437 873
437 991
438 707
438 772
438 794
438 821
438 844
438 874
438 992
439 708
439 773
439 795
439 822
439 845
439 875
439 993
440 709
440 774
440 796
440 823
440 846
440 876
440 994
441 710
441 775
441 797
441 824
441 847
441 877
441 995
442 711
442 776
442 798
442 825
442 848
442 878
442 996
443 712
443 777
443 799
443 826
443 849
443 879
443 997
444 713
444 778
444 800
444 827
444 850
444 880
444 998
445 666
445 714
445 779
445 801
445 828
445 851
445 881
446 667
446 715
446 780
446 802
446 829
446 852
446 882
447 668
447 716
447 781
447 803
447 830
447 853
447 883
448 669
448 717
448 782
448 804
448 831
448 854
448 884
449 670
449 718
449 783
449 805
449 832
449 855
449 885
450 671
450 719
450 784
450 806
450 833
450 856
450 886
451 672
451 720
451 785
451 807
451 834
451 857
451 887
452 673
452 721
452 786
452 808
452 835
452 858
452 888
453 674
453 722
453 787
453 809
453 836
453 859
453 889
454 675
454 723
454 788
454 810
454 837
454 860
454 890
455 676
455 724
455 789
455 811
455 838
455 861
455 891
456 677
456 725
456 790
456 812
456 839
456 862
456 892
457 678
457 726
457 791
457 813
457 840
457 863
457 893
458 679
458 727
458 792
458 814
458 841
458 864
458 894
459 680
459 728
459 793
459 815
459 842
459 865
459 895
460 681
460 729
460 794
460 816
460 843
460 866
460 896
461 682
461 730
461 795
461 817
461 844
461 867
461 897
462 683
462 731
462 796
462 818
462 845
462 868
462 898
463 684
463 732
463 797
463 819
463 846
463 869
463 899
464 685
464 733
464 798
464 820
464 847
464 870
464 900
465 686
465 734
465 799
465 821
465 848
465 871
465 901
466 687
466 735
466 800
466 822
466 849
466 872
466 902
467 688
467 736
467 801
467 823
467 850
467 873
467 903
468 689
468 737
468 802
468 824
468 851
468 874
468 904
469 690
469 738
469 803
469 825
469 852
469 875
469 905
470 691
470 739
470 804
470 826
470 853
470 876
470 906
471 692
471 740
471 805
471 827
471 854
471 877
471 907
472 693
472 741
472 806
472 828
472 855
472 878
472 908
473 694
473 742
473 807
473 829
473 856
473 879
473 909
474 695
474 743
474 808
474 830
474 857
474 880
474 910
475 696
475 744
475 809
475 831
475 858
475 881
475 911
476 697
476 745
476 810
476 832
476 859
476 882
476 912
477 698
477 746
477 811
477 833
477 860
477 883
477 913
478 699
478 747
478 812
478 834
478 861
478 884
478 914
479 700
479 748
479 813
479 835
479 862
479 885
479 915
480 701
480 749
480 814
480 836
480 863
480 886
480 916
481 702
481 750
481 815
481 837
481 864
481 887
481 917
482 703
482 751
482 816
482 838
482 865
482 888
482 918
483 704
483 752
483 817
483 839
483 866
483 889
483 919
484 705
484 753
484 818
484 840
484 867
484 890
484 920
485 706
485 754
485 819
485 841
485 868
485 891
485 921
486 707
486 755
486 820
486 842
486 869
486 892
486 922
487 708
487 756
487 821
487 843
487 870
487 893
487 923
488 709
488 757
488 822
488 844
488 871
488 894
488 924
489 710
489 758
489 823
489 845
489 872
489 895
489 925
490 711
490 759
490 824
490 846
490 873
490 896
490 926
491 712
491 760
491 825
491 847
491 874
491 897
491 927
492 713
492 761
492 826
492 848
492 875
492 898
492 928
493 714
493 762
493 827
493 849
493 876
493 899
493 929
494 715
494 763
494 828
494 850
494 877
494 900
494 930
495 716
495 764
495 829
495 851
495 878
495 901
495 931
496 717
496 765
496 830
496 852
496 879
496 902
496 932
497 718
497 766
497 831
497 853
497 880
497 903
497 933
498 719
498 767
498 832
498 854
498 881
498 904
498 934
499 720
499 768
499 833
499 855
499 882
499 905
499 935
500 721
500 769
500 834
500 856
500 883
500 906
500 936
501 722
501 770
501 835
501 857
501 884
501 907
501 937
502 723
502 771
502 836
502 858
502 885
502 908
502 938
503 724
503 772
503 837
503 859
503 886
503 909
503 939
504 725
504 773
504 838
504 860
504 887
504 910
504 940
505 726
505 774
505 839
505 861
505 888
505 911
505 941
506 727
506 775
506 840
506 862
506 889
506 912
506 942
507 728
507 776
507 841
507 863
507 890
507 913
507 943
508 729
508 777
508 842
508 864
508 891
508 914
508 944
509 730
509 778
509 843
509 865
509 892
509 915
509 945
510 731
510 779
510 844
510 866
510 893
510 916
510 946
511 732
511 780
511 845
511 867
511 894
511 917
511 947
512 733
512 781
512 846
512 868
512 895
512 918
512 948
513 734
513 782
513 847
513 869
513 896
513 919
513 949
514 735
514 783
514 848
514 870
514 897
514 920
514 950
515 736
515 784
515 849
515 871
515 898
515 921
515 951
516 737
516 785
516 850
516 872
516 899
516 922
516 952
517 738
517 786
517 851
517 873
517 900
517 923
517 953
518 739
518 787
518 852
518 874
518 901
518 924
518 954
519 740
519 788
519 853
519 875
519 902
519 925
519 955
520 741
520 789
520 854
520 876
520 903
520 926
520 956
521 742
521 790
521 855
521 877
521 904
521 927
521 957
522 743
522 791
522 856
522 878
522 905
522 928
522 958
523 744
523 792
523 857
523 879
523 906
523 929
523 959
524 745
524 793
524 858
524 880
524 907
524 930
524 960
525 746
525 794
525 859
525 881
525 908
525 931
525 961
526 747
526 795
526 860
526 882
526 909
526 932
526 962
527 748
527 796
527 861
527 883
527 910
527 933
527 963
528 749
528 797
528 862
528 884
528 911
528 934
528 964
529 750
529 798
529 863
529 885
529 912
529 935
529 965
530 751
530 799
530 864
530 886
530 913
530 936
530 966
531 752
531 800
531 865
531 887
531 914
531 937
531 967
532 753
532 801
532 866
532 888
532 915
532 938
532 968
533 754
533 802
533 867
533 889
533 916
533 939
533 969
534 755
534 803
534 868
534 890
534 917
534 940
534 970
535 756
535 804
535 869
535 891
535 918
535 941
535 971
536 757
536 805
536 870
536 892
536 919
536 942
536 972
537 758
537 806
537 871
537 893
537 920
537 943
537 973
538 759
538 807
538 872
538 894
538 921
538 944
538 974
539 760
539 808
539 873
539 895
539 922
539 945
539 975
540 761
540 809
540 874
540 896
540 923
540 946
540 976
541 762
541 810
541 875
541 897
541 924
541 947
541 977
542 763
542 811
542 876
542 898
542 925
542 948
542 978
543 764
543 812
543 877
543 899
543 926
543 949
543 979
544 765
544 813
544 878
544 900
544 927
544 950
544 980
545 766
545 814
545 879
545 901
545 928
545 951
545 981
546 767
546 815
546 880
546 902
546 929
546 952
546 982
547 768
547 816
547 881
547 903
547 930
547 953
547 983
548 769
548 817
548 882
548 904
548 931
548 954
548 984
549 770
549 818
549 883
549 905
549 932
549 955
549 985
550 771
550 819
550 884
550 906
550 933
550 956
550 986
551 772
551 820
551 885
551 907
551 934
551 957
551 987
552 773
552 821
552 886
552 908
552 935
552 958
552 988
553 774
553 822
553 887
553 909
553 936
553 959
553 989
554 775
554 823
554 888
554 910
554 937
554 960
554 990
555 776
555 824
555 889
555 911
555 938
555 961
555 991
556 777
556 825
556 890
556 912
556 939
556 962
556 992
557 778
557 826
557 891
557 913
557 940
557 963
557 993
558 779
558 827
558 892
558 914
558 941
558 964
558 994
559 780
559 828
559 893
559 915
559 942
559 965
559 995
560 781
560 829
560 894
560 916
560 943
560 966
560 996
561 782
561 830
561 895
561 917
561 944
561 967
561 997
562 783
562 831
562 896
562 918
562 945
562 968
562 998
563 666
563 784
563 832
563 897
563 919
563 946
563 969
564 667
564 785
564 833
564 898
564 920
564 947
564 970
565 668
565 786
565 834
565 899
565 921
565 948
565 971
566 669
566 787
566 835
566 900
566 922
566 949
566 972
567 670
567 788
567 836
567 901
567 923
567 950
567 973
568 671
568 789
568 837
568 902
568 924
568 951
568 974
569 672
569 790
569 838
569 903
569 925
569 952
569 975
570 673
570 791
570 839
570 904
570 926
570 953
570 976
571 674
571 792
571 840
571 905
571 927
571 954
571 977
572 675
572 793
572 841
572 906
572 928
572 955
572 978
573 676
573 794
573 842
573 907
573 929
573 956
573 979
574 677
574 795
574 843
574 908
574 930
574 957
574 980
575 678
575 796
575 844
575 909
575 931
575 958
575 981
576 679
576 797
576 845
576 910
576 932
576 959
576 982
577 680
577 798
577 846
577 911
577 933
577 960
577 983
578 681
578 799
578 847
578 912
578 934
578 961
578 984
579 682
579 800
579 848
579 913
579 935
579 962
579 985
580 683
580 801
580 849
580 914
580 936
580 963
580 986
581 684
581 802
581 850
581 915
581 937
581 964
581 987
582 685
582 803
582 851
582 916
582 938
582 965
582 988
583 686
583 804
583 852
583 917
583 939
583 966
583 989
584 687
584 805
584 853
584 918
584 940
584 967
584 990
585 688
585 806
585 854
585 919
585 941
585 968
585 991
586 689
586 807
586 855
586 920
586 942
586 969
586 992
587 690
587 808
587 856
587 921
587 943
587 970
587 993
588 691
588 809
588 857
588 922
588 944
588 971
588 994
589 692
589 810
589 858
589 923
589 945
589 972
589 995
590 693
590 811
590 859
590 924
590 946
590 973
590 996
591 694
591 812
591 860
591 925
591 947
591 974
591 997
592 695
592 813
592 861
592 926
592 948
592 975
592 998
593 666
593 696
593 814
593 862
593 927
593 949
593 976
594 667
594 697
594 815
594 863
594 928
594 950
594 977
595 668
595 698
595 816
595 864
595 929
595 951
595 978
596 669
596 699
596 817
596 865
596 930
596 952
596 979
597 670
597 700
597 818
597 866
597 931
597 953
597 980
598 671
598 701
598 819
598 867
598 932
598 954
598 981
599 672
599 702
599 820
599 868
599 933
599 955
599 982
600 673
600 703
600 821
600 869
600 934
600 956
600 983
601 674
601 704
601 822
601 870
601 935
601 957
601 984
602 675
602 705
602 823
602 871
602 936
602 958
602 985
603 676
603 706
603 824
603 872
603 937
603 959
603 986
604 677
604 707
604 825
604 873
604 938
604 960
604 987
605 678
605 708
605 826
605 874
605 939
605 961
605 988
606 679
606 709
606 827
606 875
606 940
606 962
606 989
607 680
607 710
607 828
607 876
607 941
607 963
607 990
608 681
608 711
608 829
608 877
608 942
608 964
608 991
609 682
609 712
609 830
609 878
609 943
609 965
609 992
610 683
610 713
610 831
610 879
610 944
610 966
610 993
611 684
611 714
611 832
611 880
611 945
611 967
611 994
612 685
612 715
612 833
612 881
612 946
612 968
612 995
613 686
613 716
613 834
613 882
613 947
613 969
613 996
614 687
614 717
614 835
614 883
614 948
614 970
614 997
615 688
615 718
615 836
615 884
615 949
615 971
615 998
616 666
616 689
616 719
616 837
616 885
616 950
616 972
617 667
617 690
617 720
617 838
617 886
617 951
617 973
618 668
618 691
618 721
618 839
618 887
618 952
618 974
619 669
619 692
619 722
619 840
619 888
619 953
619 975
620 670
620 693
620 723
620 841
620 889
620 954
620 976
621 671
621 694
621 724
621 842
621 890
621 955
621 977
622 672
622 695
622 725
622 843
622 891
622 956
622 978
623 673
623 696
623 726
623 844
623 892
623 957
623 979
624 674
624 697
624 727
624 845
624 893
624 958
624 980
625 675
625 698
625 728
625 846
625 894
625 959
625 981
626 676
626 699
626 729
626 847
626 895
626 960
626 982
627 677
627 700
627 730
627 848
627 896
627 961
627 983
628 678
628 701
628 731
628 849
628 897
628 962
628 984
629 679
629 702
629 732
629 850
629 898
629 963
629 985
630 680
630 703
630 733
630 851
630 899
630 964
630 986
631 681
631 704
631 734
631 852
631 900
631 965
631 987
632 682
632 705
632 735
632 853
632 901
632 966
632 988
633 683
633 706
633 736
633 854
633 902
633 967
633 989
634 684
634 707
634 737
634 855
634 903
634 968
634 990
635 685
635 708
635 738
635 856
635 904
635 969
635 991
636 686
636 709
636 739
636 857
636 905
636 970
636 992
637 687
637 710
637 740
637 858
637 906
637 971
637 993
638 688
638 711
638 741
638 859
638 907
638 972
638 994
639 689
639 712
639 742
639 860
639 908
639 973
639 995
640 690
640 713
640 743
640 861
640 909
640 974
640 996
641 691
641 714
641 744
641 862
641 910
641 975
641 997
642 692
642 715
642 745
642 863
642 911
642 976
642 998
643 666
643 693
643 716
643 746
643 864
643 912
643 977
644 667
644 694
644 717
644 747
644 865
644 913
644 978
645 668
645 695
645 718
645 748
645 866
645 914
645 979
646 669
646 696
646 719
646 749
646 867
646 915
646 980
647 670
647 697
647 720
647 750
647 868
647 916
647 981
648 671
648 698
648 721
648 751
648 869
648 917
648 982
649 672
649 699
649 722
649 752
649 870
649 918
649 983
650 673
650 700
650 723
650 753
650 871
650 919
650 984
651 674
651 701
651 724
651 754
651 872
651 920
651 985
652 675
652 702
652 725
652 755
652 873
652 921
652 986
653 676
653 703
653 726
653 756
653 874
653 922
653 987
654 677
654 704
654 727
654 757
654 875
654 923
654 988
655 678
655 705
655 728
655 758
655 876
655 924
655 989
656 679
656 706
656 729
656 759
656 877
656 925
656 990
657 680
657 707
657 730
657 760
657 878
657 926
657 991
658 681
658 708
658 731
658 761
658 879
658 927
658 992
659 682
659 709
659 732
659 762
659 880
659 928
659 993
660 683
660 710
660 733
660 763
660 881
660 929
660 994
661 684
661 711
661 734
661 764
661 882
661 930
661 995
662 685
662 712
662 735
662 765
662 883
662 931
662 996
663 686
663 713
663 736
663 766
663 884
663 932
663 997
664 687
664 714
664 737
664 767
664 885
664 933
664 998
665 666
665 688
665 715
665 738
665 768
665 886
665 934
