# Cayley graph of Z_344 rtimes_337 Z_3, degree 14, target diameter 3
# element (i,j) <-> index j*344+i ; connection set S = [564, 916, 563, 965, 449, 703, 533, 715, 431, 897, 387, 989, 536, 912]
N 1032
0 387
0 431
0 449
0 533
0 536
0 563
0 564
0 703
0 715
0 897
0 912
0 916
0 965
0 989
1 388
1 432
1 450
1 534
1 537
1 564
1 565
1 704
1 716
1 898
1 913
1 917
1 966
1 990
2 389
2 433
2 451
2 535
2 538
2 565
2 566
2 705
2 717
2 899
2 914
2 918
2 967
2 991
3 390
3 434
3 452
3 536
3 539
3 566
3 567
3 706
3 718
3 900
3 915
3 919
3 968
3 992
4 391
4 435
4 453
4 537
4 540
4 567
4 568
4 707
4 719
4 901
4 916
4 920
4 969
4 993
5 392
5 436
5 454
5 538
5 541
5 568
5 569
5 708
5 720
5 902
5 917
5 921
5 970
5 994
6 393
6 437
6 455
6 539
6 542
6 569
6 570
6 709
6 721
6 903
6 918
6 922
6 971
6 995
7 394
7 438
7 456
7 540
7 543
7 570
7 571
7 710
7 722
7 904
7 919
7 923
7 972
7 996
8 395
8 439
8 457
8 541
8 544
8 571
8 572
8 711
8 723
8 905
8 920
8 924
8 973
8 997
9 396
9 440
9 458
9 542
9 545
9 572
9 573
9 712
9 724
9 906
9 921
9 925
9 974
9 998
10 397
10 441
10 459
10 543
10 546
10 573
10 574
10 713
10 725
10 907
10 922
10 926
10 975
10 999
11 398
11 442
11 460
11 544
11 547
11 574
11 575
11 714
11 726
11 908
11 923
11 927
11 976
11 1000
12 399
12 443
12 461
12 545
12 548
12 575
12 576
12 715
12 727
12 909
12 924
12 928
12 977
12 1001
13 400
13 444
13 462
13 546
13 549
13 576
13 577
13 716
13 728
13 910
13 925
13 929
13 978
13 1002
14 401
14 445
14 463
14 547
14 550
14 577
14 578
14 717
14 729
14 911
14 926
14 930
14 979
14 1003
15 402
15 446
15 464
15 548
15 551
15 578
15 579
15 718
15 730
15 912
15 927
15 931
15 980
15 1004
16 403
16 447
16 465
16 549
16 552
16 579
16 580
16 719
16 731
16 913
16 928
16 932
16 981
16 1005
17 404
17 448
17 466
17 550
17 553
17 580
17 581
17 720
17 732
17 914
17 929
17 933
17 982
17 1006
18 405
18 449
18 467
18 551
18 554
18 581
18 582
18 721
18 733
18 915
18 930
18 934
18 983
18 1007
19 406
19 450
19 468
19 552
19 555
19 582
19 583
19 722
19 734
19 916
19 931
19 935
19 984
19 1008
20 407
20 451
20 469
20 553
20 556
20 583
20 584
20 723
20 735
20 917
20 932
20 936
20 985
20 1009
21 408
21 452
21 470
21 554
21 557
21 584
21 585
21 724
21 736
21 918
21 933
21 937
21 986
21 1010
22 409
22 453
22 471
22 555
22 558
22 585
22 586
22 725
22 737
22 919
22 934
22 938
22 987
22 1011
23 410
23 454
23 472
23 556
23 559
23 586
23 587
23 726
23 738
23 920
23 935
23 939
23 988
23 1012
24 411
24 455
24 473
24 557
24 560
24 587
24 588
24 727
24 739
24 921
24 936
24 940
24 989
24 1013
25 412
25 456
25 474
25 558
25 561
25 588
25 589
25 728
25 740
25 922
25 937
25 941
25 990
25 1014
26 413
26 457
26 475
26 559
26 562
26 589
26 590
26 729
26 741
26 923
26 938
26 942
26 991
26 1015
27 414
27 458
27 476
27 560
27 563
27 590
27 591
27 730
27 742
27 924
27 939
27 943
27 992
27 1016
28 415
28 459
28 477
28 561
28 564
28 591
28 592
28 731
28 743
28 925
28 940
28 944
28 993
28 1017
29 416
29 460
29 478
29 562
29 565
29 592
29 593
29 732
29 744
29 926
29 941
29 945
29 994
29 1018
30 417
30 461
30 479
30 563
30 566
30 593
30 594
30 733
30 745
30 927
30 942
30 946
30 995
30 1019
31 418
31 462
31 480
31 564
31 567
31 594
31 595
31 734
31 746
31 928
31 943
31 947
31 996
31 1020
32 419
32 463
32 481
32 565
32 568
32 595
32 596
32 735
32 747
32 929
32 944
32 948
32 997
32 1021
33 420
33 464
33 482
33 566
33 569
33 596
33 597
33 736
33 748
33 930
33 945
33 949
33 998
33 1022
34 421
34 465
34 483
34 567
34 570
34 597
34 598
34 737
34 749
34 931
34 946
34 950
34 999
34 1023
35 422
35 466
35 484
35 568
35 571
35 598
35 599
35 738
35 750
35 932
35 947
35 951
35 1000
35 1024
36 423
36 467
36 485
36 569
36 572
36 599
36 600
36 739
36 751
36 933
36 948
36 952
36 1001
36 1025
37 424
37 468
37 486
37 570
37 573
37 600
37 601
37 740
37 752
37 934
37 949
37 953
37 1002
37 1026
38 425
38 469
38 487
38 571
38 574
38 601
38 602
38 741
38 753
38 935
38 950
38 954
38 1003
38 1027
39 426
39 470
39 488
39 572
39 575
39 602
39 603
39 742
39 754
39 936
39 951
39 955
39 1004
39 1028
40 427
40 471
40 489
40 573
40 576
40 603
40 604
40 743
40 755
40 937
40 952
40 956
40 1005
40 1029
41 428
41 472
41 490
41 574
41 577
41 604
41 605
41 744
41 756
41 938
41 953
41 957
41 1006
41 1030
42 429
42 473
42 491
42 575
42 578
42 605
42 606
42 745
42 757
42 939
42 954
42 958
42 1007
42 1031
43 430
43 474
43 492
43 576
43 579
43 606
43 607
43 688
43 746
43 758
43 940
43 955
43 959
43 1008
44 431
44 475
44 493
44 577
44 580
44 607
44 608
44 689
44 747
44 759
44 941
44 956
44 960
44 1009
45 432
45 476
45 494
45 578
45 581
45 608
45 609
45 690
45 748
45 760
45 942
45 957
45 961
45 1010
46 433
46 477
46 495
46 579
46 582
46 609
46 610
46 691
46 749
46 761
46 943
46 958
46 962
46 1011
47 434
47 478
47 496
47 580
47 583
47 610
47 611
47 692
47 750
47 762
47 944
47 959
47 963
47 1012
48 435
48 479
48 497
48 581
48 584
48 611
48 612
48 693
48 751
48 763
48 945
48 960
48 964
48 1013
49 436
49 480
49 498
49 582
49 585
49 612
49 613
49 694
49 752
49 764
49 946
49 961
49 965
49 1014
50 437
50 481
50 499
50 583
50 586
50 613
50 614
50 695
50 753
50 765
50 947
50 962
50 966
50 1015
51 438
51 482
51 500
51 584
51 587
51 614
51 615
51 696
51 754
51 766
51 948
51 963
51 967
51 1016
52 439
52 483
52 501
52 585
52 588
52 615
52 616
52 697
52 755
52 767
52 949
52 964
52 968
52 1017
53 440
53 484
53 502
53 586
53 589
53 616
53 617
53 698
53 756
53 768
53 950
53 965
53 969
53 1018
54 441
54 485
54 503
54 587
54 590
54 617
54 618
54 699
54 757
54 769
54 951
54 966
54 970
54 1019
55 442
55 486
55 504
55 588
55 591
55 618
55 619
55 700
55 758
55 770
55 952
55 967
55 971
55 1020
56 443
56 487
56 505
56 589
56 592
56 619
56 620
56 701
56 759
56 771
56 953
56 968
56 972
56 1021
57 444
57 488
57 506
57 590
57 593
57 620
57 621
57 702
57 760
57 772
57 954
57 969
57 973
57 1022
58 445
58 489
58 507
58 591
58 594
58 621
58 622
58 703
58 761
58 773
58 955
58 970
58 974
58 1023
59 446
59 490
59 508
59 592
59 595
59 622
59 623
59 704
59 762
59 774
59 956
59 971
59 975
59 1024
60 447
60 491
60 509
60 593
60 596
60 623
60 624
60 705
60 763
60 775
60 957
60 972
60 976
60 1025
61 448
61 492
61 510
61 594
61 597
61 624
61 625
61 706
61 764
61 776
61 958
61 973
61 977
61 1026
62 449
62 493
62 511
62 595
62 598
62 625
62 626
62 707
62 765
62 777
62 959
62 974
62 978
62 1027
63 450
63 494
63 512
63 596
63 599
63 626
63 627
63 708
63 766
63 778
63 960
63 975
63 979
63 1028
64 451
64 495
64 513
64 597
64 600
64 627
64 628
64 709
64 767
64 779
64 961
64 976
64 980
64 1029
65 452
65 496
65 514
65 598
65 601
65 628
65 629
65 710
65 768
65 780
65 962
65 977
65 981
65 1030
66 453
66 497
66 515
66 599
66 602
66 629
66 630
66 711
66 769
66 781
66 963
66 978
66 982
66 1031
67 454
67 498
67 516
67 600
67 603
67 630
67 631
67 688
67 712
67 770
67 782
67 964
67 979
67 983
68 455
68 499
68 517
68 601
68 604
68 631
68 632
68 689
68 713
68 771
68 783
68 965
68 980
68 984
69 456
69 500
69 518
69 602
69 605
69 632
69 633
69 690
69 714
69 772
69 784
69 966
69 981
69 985
70 457
70 501
70 519
70 603
70 606
70 633
70 634
70 691
70 715
70 773
70 785
70 967
70 982
70 986
71 458
71 502
71 520
71 604
71 607
71 634
71 635
71 692
71 716
71 774
71 786
71 968
71 983
71 987
72 459
72 503
72 521
72 605
72 608
72 635
72 636
72 693
72 717
72 775
72 787
72 969
72 984
72 988
73 460
73 504
73 522
73 606
73 609
73 636
73 637
73 694
73 718
73 776
73 788
73 970
73 985
73 989
74 461
74 505
74 523
74 607
74 610
74 637
74 638
74 695
74 719
74 777
74 789
74 971
74 986
74 990
75 462
75 506
75 524
75 608
75 611
75 638
75 639
75 696
75 720
75 778
75 790
75 972
75 987
75 991
76 463
76 507
76 525
76 609
76 612
76 639
76 640
76 697
76 721
76 779
76 791
76 973
76 988
76 992
77 464
77 508
77 526
77 610
77 613
77 640
77 641
77 698
77 722
77 780
77 792
77 974
77 989
77 993
78 465
78 509
78 527
78 611
78 614
78 641
78 642
78 699
78 723
78 781
78 793
78 975
78 990
78 994
79 466
79 510
79 528
79 612
79 615
79 642
79 643
79 700
79 724
79 782
79 794
79 976
79 991
79 995
80 467
80 511
80 529
80 613
80 616
80 643
80 644
80 701
80 725
80 783
80 795
80 977
80 992
80 996
81 468
81 512
81 530
81 614
81 617
81 644
81 645
81 702
81 726
81 784
81 796
81 978
81 993
81 997
82 469
82 513
82 531
82 615
82 618
82 645
82 646
82 703
82 727
82 785
82 797
82 979
82 994
82 998
83 470
83 514
83 532
83 616
83 619
83 646
83 647
83 704
83 728
83 786
83 798
83 980
83 995
83 999
84 471
84 515
84 533
84 617
84 620
84 647
84 648
84 705
84 729
84 787
84 799
84 981
84 996
84 1000
85 472
85 516
85 534
85 618
85 621
85 648
85 649
85 706
85 730
85 788
85 800
85 982
85 997
85 1001
86 473
86 517
86 535
86 619
86 622
86 649
86 650
86 707
86 731
86 789
86 801
86 983
86 998
86 1002
87 474
87 518
87 536
87 620
87 623
87 650
87 651
87 708
87 732
87 790
87 802
87 984
87 999
87 1003
88 475
88 519
88 537
88 621
88 624
88 651
88 652
88 709
88 733
88 791
88 803
88 985
88 1000
88 1004
89 476
89 520
89 538
89 622
89 625
89 652
89 653
89 710
89 734
89 792
89 804
89 986
89 1001
89 1005
90 477
90 521
90 539
90 623
90 626
90 653
90 654
90 711
90 735
90 793
90 805
90 987
90 1002
90 1006
91 478
91 522
91 540
91 624
91 627
91 654
91 655
91 712
91 736
91 794
91 806
91 988
91 1003
91 1007
92 479
92 523
92 541
92 625
92 628
92 655
92 656
92 713
92 737
92 795
92 807
92 989
92 1004
92 1008
93 480
93 524
93 542
93 626
93 629
93 656
93 657
93 714
93 738
93 796
93 808
93 990
93 1005
93 1009
94 481
94 525
94 543
94 627
94 630
94 657
94 658
94 715
94 739
94 797
94 809
94 991
94 1006
94 1010
95 482
95 526
95 544
95 628
95 631
95 658
95 659
95 716
95 740
95 798
95 810
95 992
95 1007
95 1011
96 483
96 527
96 545
96 629
96 632
96 659
96 660
96 717
96 741
96 799
96 811
96 993
96 1008
96 1012
97 484
97 528
97 546
97 630
97 633
97 660
97 661
97 718
97 742
97 800
97 812
97 994
97 1009
97 1013
98 485
98 529
98 547
98 631
98 634
98 661
98 662
98 719
98 743
98 801
98 813
98 995
98 1010
98 1014
99 486
99 530
99 548
99 632
99 635
99 662
99 663
99 720
99 744
99 802
99 814
99 996
99 1011
99 1015
100 487
100 531
100 549
100 633
100 636
100 663
100 664
100 721
100 745
100 803
100 815
100 997
100 1012
100 1016
101 488
101 532
101 550
101 634
101 637
101 664
101 665
101 722
101 746
101 804
101 816
101 998
101 1013
101 1017
102 489
102 533
102 551
102 635
102 638
102 665
102 666
102 723
102 747
102 805
102 817
102 999
102 1014
102 1018
103 490
103 534
103 552
103 636
103 639
103 666
103 667
103 724
103 748
103 806
103 818
103 1000
103 1015
103 1019
104 491
104 535
104 553
104 637
104 640
104 667
104 668
104 725
104 749
104 807
104 819
104 1001
104 1016
104 1020
105 492
105 536
105 554
105 638
105 641
105 668
105 669
105 726
105 750
105 808
105 820
105 1002
105 1017
105 1021
106 493
106 537
106 555
106 639
106 642
106 669
106 670
106 727
106 751
106 809
106 821
106 1003
106 1018
106 1022
107 494
107 538
107 556
107 640
107 643
107 670
107 671
107 728
107 752
107 810
107 822
107 1004
107 1019
107 1023
108 495
108 539
108 557
108 641
108 644
108 671
108 672
108 729
108 753
108 811
108 823
108 1005
108 1020
108 1024
109 496
109 540
109 558
109 642
109 645
109 672
109 673
109 730
109 754
109 812
109 824
109 1006
109 1021
109 1025
110 497
110 541
110 559
110 643
110 646
110 673
110 674
110 731
110 755
110 813
110 825
110 1007
110 1022
110 1026
111 498
111 542
111 560
111 644
111 647
111 674
111 675
111 732
111 756
111 814
111 826
111 1008
111 1023
111 1027
112 499
112 543
112 561
112 645
112 648
112 675
112 676
112 733
112 757
112 815
112 827
112 1009
112 1024
112 1028
113 500
113 544
113 562
113 646
113 649
113 676
113 677
113 734
113 758
113 816
113 828
113 1010
113 1025
113 1029
114 501
114 545
114 563
114 647
114 650
114 677
114 678
114 735
114 759
114 817
114 829
114 1011
114 1026
114 1030
115 502
115 546
115 564
115 648
115 651
115 678
115 679
115 736
115 760
115 818
115 830
115 1012
115 1027
115 1031
116 503
116 547
116 565
116 649
116 652
116 679
116 680
116 688
116 737
116 761
116 819
116 831
116 1013
116 1028
117 504
117 548
117 566
117 650
117 653
117 680
117 681
117 689
117 738
117 762
117 820
117 832
117 1014
117 1029
118 505
118 549
118 567
118 651
118 654
118 681
118 682
118 690
118 739
118 763
118 821
118 833
118 1015
118 1030
119 506
119 550
119 568
119 652
119 655
119 682
119 683
119 691
119 740
119 764
119 822
119 834
119 1016
119 1031
120 507
120 551
120 569
120 653
120 656
120 683
120 684
120 688
120 692
120 741
120 765
120 823
120 835
120 1017
121 508
121 552
121 570
121 654
121 657
121 684
121 685
121 689
121 693
121 742
121 766
121 824
121 836
121 1018
122 509
122 553
122 571
122 655
122 658
122 685
122 686
122 690
122 694
122 743
122 767
122 825
122 837
122 1019
123 510
123 554
123 572
123 656
123 659
123 686
123 687
123 691
123 695
123 744
123 768
123 826
123 838
123 1020
124 344
124 511
124 555
124 573
124 657
124 660
124 687
124 692
124 696
124 745
124 769
124 827
124 839
124 1021
125 344
125 345
125 512
125 556
125 574
125 658
125 661
125 693
125 697
125 746
125 770
125 828
125 840
125 1022
126 345
126 346
126 513
126 557
126 575
126 659
126 662
126 694
126 698
126 747
126 771
126 829
126 841
126 1023
127 346
127 347
127 514
127 558
127 576
127 660
127 663
127 695
127 699
127 748
127 772
127 830
127 842
127 1024
128 347
128 348
128 515
128 559
128 577
128 661
128 664
128 696
128 700
128 749
128 773
128 831
128 843
128 1025
129 348
129 349
129 516
129 560
129 578
129 662
129 665
129 697
129 701
129 750
129 774
129 832
129 844
129 1026
130 349
130 350
130 517
130 561
130 579
130 663
130 666
130 698
130 702
130 751
130 775
130 833
130 845
130 1027
131 350
131 351
131 518
131 562
131 580
131 664
131 667
131 699
131 703
131 752
131 776
131 834
131 846
131 1028
132 351
132 352
132 519
132 563
132 581
132 665
132 668
132 700
132 704
132 753
132 777
132 835
132 847
132 1029
133 352
133 353
133 520
133 564
133 582
133 666
133 669
133 701
133 705
133 754
133 778
133 836
133 848
133 1030
134 353
134 354
134 521
134 565
134 583
134 667
134 670
134 702
134 706
134 755
134 779
134 837
134 849
134 1031
135 354
135 355
135 522
135 566
135 584
135 668
135 671
135 688
135 703
135 707
135 756
135 780
135 838
135 850
136 355
136 356
136 523
136 567
136 585
136 669
136 672
136 689
136 704
136 708
136 757
136 781
136 839
136 851
137 356
137 357
137 524
137 568
137 586
137 670
137 673
137 690
137 705
137 709
137 758
137 782
137 840
137 852
138 357
138 358
138 525
138 569
138 587
138 671
138 674
138 691
138 706
138 710
138 759
138 783
138 841
138 853
139 358
139 359
139 526
139 570
139 588
139 672
139 675
139 692
139 707
139 711
139 760
139 784
139 842
139 854
140 359
140 360
140 527
140 571
140 589
140 673
140 676
140 693
140 708
140 712
140 761
140 785
140 843
140 855
141 360
141 361
141 528
141 572
141 590
141 674
141 677
141 694
141 709
141 713
141 762
141 786
141 844
141 856
142 361
142 362
142 529
142 573
142 591
142 675
142 678
142 695
142 710
142 714
142 763
142 787
142 845
142 857
143 362
143 363
143 530
143 574
143 592
143 676
143 679
143 696
143 711
143 715
143 764
143 788
143 846
143 858
144 363
144 364
144 531
144 575
144 593
144 677
144 680
144 697
144 712
144 716
144 765
144 789
144 847
144 859
145 364
145 365
145 532
145 576
145 594
145 678
145 681
145 698
145 713
145 717
145 766
145 790
145 848
145 860
146 365
146 366
146 533
146 577
146 595
146 679
146 682
146 699
146 714
146 718
146 767
146 791
146 849
146 861
147 366
147 367
147 534
147 578
147 596
147 680
147 683
147 700
147 715
147 719
147 768
147 792
147 850
147 862
148 367
148 368
148 535
148 579
148 597
148 681
148 684
148 701
148 716
148 720
148 769
148 793
148 851
148 863
149 368
149 369
149 536
149 580
149 598
149 682
149 685
149 702
149 717
149 721
149 770
149 794
149 852
149 864
150 369
150 370
150 537
150 581
150 599
150 683
150 686
150 703
150 718
150 722
150 771
150 795
150 853
150 865
151 370
151 371
151 538
151 582
151 600
151 684
151 687
151 704
151 719
151 723
151 772
151 796
151 854
151 866
152 344
152 371
152 372
152 539
152 583
152 601
152 685
152 705
152 720
152 724
152 773
152 797
152 855
152 867
153 345
153 372
153 373
153 540
153 584
153 602
153 686
153 706
153 721
153 725
153 774
153 798
153 856
153 868
154 346
154 373
154 374
154 541
154 585
154 603
154 687
154 707
154 722
154 726
154 775
154 799
154 857
154 869
155 344
155 347
155 374
155 375
155 542
155 586
155 604
155 708
155 723
155 727
155 776
155 800
155 858
155 870
156 345
156 348
156 375
156 376
156 543
156 587
156 605
156 709
156 724
156 728
156 777
156 801
156 859
156 871
157 346
157 349
157 376
157 377
157 544
157 588
157 606
157 710
157 725
157 729
157 778
157 802
157 860
157 872
158 347
158 350
158 377
158 378
158 545
158 589
158 607
158 711
158 726
158 730
158 779
158 803
158 861
158 873
159 348
159 351
159 378
159 379
159 546
159 590
159 608
159 712
159 727
159 731
159 780
159 804
159 862
159 874
160 349
160 352
160 379
160 380
160 547
160 591
160 609
160 713
160 728
160 732
160 781
160 805
160 863
160 875
161 350
161 353
161 380
161 381
161 548
161 592
161 610
161 714
161 729
161 733
161 782
161 806
161 864
161 876
162 351
162 354
162 381
162 382
162 549
162 593
162 611
162 715
162 730
162 734
162 783
162 807
162 865
162 877
163 352
163 355
163 382
163 383
163 550
163 594
163 612
163 716
163 731
163 735
163 784
163 808
163 866
163 878
164 353
164 356
164 383
164 384
164 551
164 595
164 613
164 717
164 732
164 736
164 785
164 809
164 867
164 879
165 354
165 357
165 384
165 385
165 552
165 596
165 614
165 718
165 733
165 737
165 786
165 810
165 868
165 880
166 355
166 358
166 385
166 386
166 553
166 597
166 615
166 719
166 734
166 738
166 787
166 811
166 869
166 881
167 356
167 359
167 386
167 387
167 554
167 598
167 616
167 720
167 735
167 739
167 788
167 812
167 870
167 882
168 357
168 360
168 387
168 388
168 555
168 599
168 617
168 721
168 736
168 740
168 789
168 813
168 871
168 883
169 358
169 361
169 388
169 389
169 556
169 600
169 618
169 722
169 737
169 741
169 790
169 814
169 872
169 884
170 359
170 362
170 389
170 390
170 557
170 601
170 619
170 723
170 738
170 742
170 791
170 815
170 873
170 885
171 360
171 363
171 390
171 391
171 558
171 602
171 620
171 724
171 739
171 743
171 792
171 816
171 874
171 886
172 361
172 364
172 391
172 392
172 559
172 603
172 621
172 725
172 740
172 744
172 793
172 817
172 875
172 887
173 362
173 365
173 392
173 393
173 560
173 604
173 622
173 726
173 741
173 745
173 794
173 818
173 876
173 888
174 363
174 366
174 393
174 394
174 561
174 605
174 623
174 727
174 742
174 746
174 795
174 819
174 877
174 889
175 364
175 367
175 394
175 395
175 562
175 606
175 624
175 728
175 743
175 747
175 796
175 820
175 878
175 890
176 365
176 368
176 395
176 396
176 563
176 607
176 625
176 729
176 744
176 748
176 797
176 821
176 879
176 891
177 366
177 369
177 396
177 397
177 564
177 608
177 626
177 730
177 745
177 749
177 798
177 822
177 880
177 892
178 367
178 370
178 397
178 398
178 565
178 609
178 627
178 731
178 746
178 750
178 799
178 823
178 881
178 893
179 368
179 371
179 398
179 399
179 566
179 610
179 628
179 732
179 747
179 751
179 800
179 824
179 882
179 894
180 369
180 372
180 399
180 400
180 567
180 611
180 629
180 733
180 748
180 752
180 801
180 825
180 883
180 895
181 370
181 373
181 400
181 401
181 568
181 612
181 630
181 734
181 749
181 753
181 802
181 826
181 884
181 896
182 371
182 374
182 401
182 402
182 569
182 613
182 631
182 735
182 750
182 754
182 803
182 827
182 885
182 897
183 372
183 375
183 402
183 403
183 570
183 614
183 632
183 736
183 751
183 755
183 804
183 828
183 886
183 898
184 373
184 376
184 403
184 404
184 571
184 615
184 633
184 737
184 752
184 756
184 805
184 829
184 887
184 899
185 374
185 377
185 404
185 405
185 572
185 616
185 634
185 738
185 753
185 757
185 806
185 830
185 888
185 900
186 375
186 378
186 405
186 406
186 573
186 617
186 635
186 739
186 754
186 758
186 807
186 831
186 889
186 901
187 376
187 379
187 406
187 407
187 574
187 618
187 636
187 740
187 755
187 759
187 808
187 832
187 890
187 902
188 377
188 380
188 407
188 408
188 575
188 619
188 637
188 741
188 756
188 760
188 809
188 833
188 891
188 903
189 378
189 381
189 408
189 409
189 576
189 620
189 638
189 742
189 757
189 761
189 810
189 834
189 892
189 904
190 379
190 382
190 409
190 410
190 577
190 621
190 639
190 743
190 758
190 762
190 811
190 835
190 893
190 905
191 380
191 383
191 410
191 411
191 578
191 622
191 640
191 744
191 759
191 763
191 812
191 836
191 894
191 906
192 381
192 384
192 411
192 412
192 579
192 623
192 641
192 745
192 760
192 764
192 813
192 837
192 895
192 907
193 382
193 385
193 412
193 413
193 580
193 624
193 642
193 746
193 761
193 765
193 814
193 838
193 896
193 908
194 383
194 386
194 413
194 414
194 581
194 625
194 643
194 747
194 762
194 766
194 815
194 839
194 897
194 909
195 384
195 387
195 414
195 415
195 582
195 626
195 644
195 748
195 763
195 767
195 816
195 840
195 898
195 910
196 385
196 388
196 415
196 416
196 583
196 627
196 645
196 749
196 764
196 768
196 817
196 841
196 899
196 911
197 386
197 389
197 416
197 417
197 584
197 628
197 646
197 750
197 765
197 769
197 818
197 842
197 900
197 912
198 387
198 390
198 417
198 418
198 585
198 629
198 647
198 751
198 766
198 770
198 819
198 843
198 901
198 913
199 388
199 391
199 418
199 419
199 586
199 630
199 648
199 752
199 767
199 771
199 820
199 844
199 902
199 914
200 389
200 392
200 419
200 420
200 587
200 631
200 649
200 753
200 768
200 772
200 821
200 845
200 903
200 915
201 390
201 393
201 420
201 421
201 588
201 632
201 650
201 754
201 769
201 773
201 822
201 846
201 904
201 916
202 391
202 394
202 421
202 422
202 589
202 633
202 651
202 755
202 770
202 774
202 823
202 847
202 905
202 917
203 392
203 395
203 422
203 423
203 590
203 634
203 652
203 756
203 771
203 775
203 824
203 848
203 906
203 918
204 393
204 396
204 423
204 424
204 591
204 635
204 653
204 757
204 772
204 776
204 825
204 849
204 907
204 919
205 394
205 397
205 424
205 425
205 592
205 636
205 654
205 758
205 773
205 777
205 826
205 850
205 908
205 920
206 395
206 398
206 425
206 426
206 593
206 637
206 655
206 759
206 774
206 778
206 827
206 851
206 909
206 921
207 396
207 399
207 426
207 427
207 594
207 638
207 656
207 760
207 775
207 779
207 828
207 852
207 910
207 922
208 397
208 400
208 427
208 428
208 595
208 639
208 657
208 761
208 776
208 780
208 829
208 853
208 911
208 923
209 398
209 401
209 428
209 429
209 596
209 640
209 658
209 762
209 777
209 781
209 830
209 854
209 912
209 924
210 399
210 402
210 429
210 430
210 597
210 641
210 659
210 763
210 778
210 782
210 831
210 855
210 913
210 925
211 400
211 403
211 430
211 431
211 598
211 642
211 660
211 764
211 779
211 783
211 832
211 856
211 914
211 926
212 401
212 404
212 431
212 432
212 599
212 643
212 661
212 765
212 780
212 784
212 833
212 857
212 915
212 927
213 402
213 405
213 432
213 433
213 600
213 644
213 662
213 766
213 781
213 785
213 834
213 858
213 916
213 928
214 403
214 406
214 433
214 434
214 601
214 645
214 663
214 767
214 782
214 786
214 835
214 859
214 917
214 929
215 404
215 407
215 434
215 435
215 602
215 646
215 664
215 768
215 783
215 787
215 836
215 860
215 918
215 930
216 405
216 408
216 435
216 436
216 603
216 647
216 665
216 769
216 784
216 788
216 837
216 861
216 919
216 931
217 406
217 409
217 436
217 437
217 604
217 648
217 666
217 770
217 785
217 789
217 838
217 862
217 920
217 932
218 407
218 410
218 437
218 438
218 605
218 649
218 667
218 771
218 786
218 790
218 839
218 863
218 921
218 933
219 408
219 411
219 438
219 439
219 606
219 650
219 668
219 772
219 787
219 791
219 840
219 864
219 922
219 934
220 409
220 412
220 439
220 440
220 607
220 651
220 669
220 773
220 788
220 792
220 841
220 865
220 923
220 935
221 410
221 413
221 440
221 441
221 608
221 652
221 670
221 774
221 789
221 793
221 842
221 866
221 924
221 936
222 411
222 414
222 441
222 442
222 609
222 653
222 671
222 775
222 790
222 794
222 843
222 867
222 925
222 937
223 412
223 415
223 442
223 443
223 610
223 654
223 672
223 776
223 791
223 795
223 844
223 868
223 926
223 938
224 413
224 416
224 443
224 444
224 611
224 655
224 673
224 777
224 792
224 796
224 845
224 869
224 927
224 939
225 414
225 417
225 444
225 445
225 612
225 656
225 674
225 778
225 793
225 797
225 846
225 870
225 928
225 940
226 415
226 418
226 445
226 446
226 613
226 657
226 675
226 779
226 794
226 798
226 847
226 871
226 929
226 941
227 416
227 419
227 446
227 447
227 614
227 658
227 676
227 780
227 795
227 799
227 848
227 872
227 930
227 942
228 417
228 420
228 447
228 448
228 615
228 659
228 677
228 781
228 796
228 800
228 849
228 873
228 931
228 943
229 418
229 421
229 448
229 449
229 616
229 660
229 678
229 782
229 797
229 801
229 850
229 874
229 932
229 944
230 419
230 422
230 449
230 450
230 617
230 661
230 679
230 783
230 798
230 802
230 851
230 875
230 933
230 945
231 420
231 423
231 450
231 451
231 618
231 662
231 680
231 784
231 799
231 803
231 852
231 876
231 934
231 946
232 421
232 424
232 451
232 452
232 619
232 663
232 681
232 785
232 800
232 804
232 853
232 877
232 935
232 947
233 422
233 425
233 452
233 453
233 620
233 664
233 682
233 786
233 801
233 805
233 854
233 878
233 936
233 948
234 423
234 426
234 453
234 454
234 621
234 665
234 683
234 787
234 802
234 806
234 855
234 879
234 937
234 949
235 424
235 427
235 454
235 455
235 622
235 666
235 684
235 788
235 803
235 807
235 856
235 880
235 938
235 950
236 425
236 428
236 455
236 456
236 623
236 667
236 685
236 789
236 804
236 808
236 857
236 881
236 939
236 951
237 426
237 429
237 456
237 457
237 624
237 668
237 686
237 790
237 805
237 809
237 858
237 882
237 940
237 952
238 427
238 430
238 457
238 458
238 625
238 669
238 687
238 791
238 806
238 810
238 859
238 883
238 941
238 953
239 344
239 428
239 431
239 458
239 459
239 626
239 670
239 792
239 807
239 811
239 860
239 884
239 942
239 954
240 345
240 429
240 432
240 459
240 460
240 627
240 671
240 793
240 808
240 812
240 861
240 885
240 943
240 955
241 346
241 430
241 433
241 460
241 461
241 628
241 672
241 794
241 809
241 813
241 862
241 886
241 944
241 956
242 347
242 431
242 434
242 461
242 462
242 629
242 673
242 795
242 810
242 814
242 863
242 887
242 945
242 957
243 348
243 432
243 435
243 462
243 463
243 630
243 674
243 796
243 811
243 815
243 864
243 888
243 946
243 958
244 349
244 433
244 436
244 463
244 464
244 631
244 675
244 797
244 812
244 816
244 865
244 889
244 947
244 959
245 350
245 434
245 437
245 464
245 465
245 632
245 676
245 798
245 813
245 817
245 866
245 890
245 948
245 960
246 351
246 435
246 438
246 465
246 466
246 633
246 677
246 799
246 814
246 818
246 867
246 891
246 949
246 961
247 352
247 436
247 439
247 466
247 467
247 634
247 678
247 800
247 815
247 819
247 868
247 892
247 950
247 962
248 353
248 437
248 440
248 467
248 468
248 635
248 679
248 801
248 816
248 820
248 869
248 893
248 951
248 963
249 354
249 438
249 441
249 468
249 469
249 636
249 680
249 802
249 817
249 821
249 870
249 894
249 952
249 964
250 355
250 439
250 442
250 469
250 470
250 637
250 681
250 803
250 818
250 822
250 871
250 895
250 953
250 965
251 356
251 440
251 443
251 470
251 471
251 638
251 682
251 804
251 819
251 823
251 872
251 896
251 954
251 966
252 357
252 441
252 444
252 471
252 472
252 639
252 683
252 805
252 820
252 824
252 873
252 897
252 955
252 967
253 358
253 442
253 445
253 472
253 473
253 640
253 684
253 806
253 821
253 825
253 874
253 898
253 956
253 968
254 359
254 443
254 446
254 473
254 474
254 641
254 685
254 807
254 822
254 826
254 875
254 899
254 957
254 969
255 360
255 444
255 447
255 474
255 475
255 642
255 686
255 808
255 823
255 827
255 876
255 900
255 958
255 970
256 361
256 445
256 448
256 475
256 476
256 643
256 687
256 809
256 824
256 828
256 877
256 901
256 959
256 971
257 344
257 362
257 446
257 449
257 476
257 477
257 644
257 810
257 825
257 829
257 878
257 902
257 960
257 972
258 345
258 363
258 447
258 450
258 477
258 478
258 645
258 811
258 826
258 830
258 879
258 903
258 961
258 973
259 346
259 364
259 448
259 451
259 478
259 479
259 646
259 812
259 827
259 831
259 880
259 904
259 962
259 974
260 347
260 365
260 449
260 452
260 479
260 480
260 647
260 813
260 828
260 832
260 881
260 905
260 963
260 975
261 348
261 366
261 450
261 453
261 480
261 481
261 648
261 814
261 829
261 833
261 882
261 906
261 964
261 976
262 349
262 367
262 451
262 454
262 481
262 482
262 649
262 815
262 830
262 834
262 883
262 907
262 965
262 977
263 350
263 368
263 452
263 455
263 482
263 483
263 650
263 816
263 831
263 835
263 884
263 908
263 966
263 978
264 351
264 369
264 453
264 456
264 483
264 484
264 651
264 817
264 832
264 836
264 885
264 909
264 967
264 979
265 352
265 370
265 454
265 457
265 484
265 485
265 652
265 818
265 833
265 837
265 886
265 910
265 968
265 980
266 353
266 371
266 455
266 458
266 485
266 486
266 653
266 819
266 834
266 838
266 887
266 911
266 969
266 981
267 354
267 372
267 456
267 459
267 486
267 487
267 654
267 820
267 835
267 839
267 888
267 912
267 970
267 982
268 355
268 373
268 457
268 460
268 487
268 488
268 655
268 821
268 836
268 840
268 889
268 913
268 971
268 983
269 356
269 374
269 458
269 461
269 488
269 489
269 656
269 822
269 837
269 841
269 890
269 914
269 972
269 984
270 357
270 375
270 459
270 462
270 489
270 490
270 657
270 823
270 838
270 842
270 891
270 915
270 973
270 985
271 358
271 376
271 460
271 463
271 490
271 491
271 658
271 824
271 839
271 843
271 892
271 916
271 974
271 986
272 359
272 377
272 461
272 464
272 491
272 492
272 659
272 825
272 840
272 844
272 893
272 917
272 975
272 987
273 360
273 378
273 462
273 465
273 492
273 493
273 660
273 826
273 841
273 845
273 894
273 918
273 976
273 988
274 361
274 379
274 463
274 466
274 493
274 494
274 661
274 827
274 842
274 846
274 895
274 919
274 977
274 989
275 362
275 380
275 464
275 467
275 494
275 495
275 662
275 828
275 843
275 847
275 896
275 920
275 978
275 990
276 363
276 381
276 465
276 468
276 495
276 496
276 663
276 829
276 844
276 848
276 897
276 921
276 979
276 991
277 364
277 382
277 466
277 469
277 496
277 497
277 664
277 830
277 845
277 849
277 898
277 922
277 980
277 992
278 365
278 383
278 467
278 470
278 497
278 498
278 665
278 831
278 846
278 850
278 899
278 923
278 981
278 993
279 366
279 384
279 468
279 471
279 498
279 499
279 666
279 832
279 847
279 851
279 900
279 924
279 982
279 994
280 367
280 385
280 469
280 472
280 499
280 500
280 667
280 833
280 848
280 852
280 901
280 925
280 983
280 995
281 368
281 386
281 470
281 473
281 500
281 501
281 668
281 834
281 849
281 853
281 902
281 926
281 984
281 996
282 369
282 387
282 471
282 474
282 501
282 502
282 669
282 835
282 850
282 854
282 903
282 927
282 985
282 997
283 370
283 388
283 472
283 475
283 502
283 503
283 670
283 836
283 851
283 855
283 904
283 928
283 986
283 998
284 371
284 389
284 473
284 476
284 503
284 504
284 671
284 837
284 852
284 856
284 905
284 929
284 987
284 999
285 372
285 390
285 474
285 477
285 504
285 505
285 672
285 838
285 853
285 857
285 906
285 930
285 988
285 1000
286 373
286 391
286 475
286 478
286 505
286 506
286 673
286 839
286 854
286 858
286 907
286 931
286 989
286 1001
287 374
287 392
287 476
287 479
287 506
287 507
287 674
287 840
287 855
287 859
287 908
287 932
287 990
287 1002
288 375
288 393
288 477
288 480
288 507
288 508
288 675
288 841
288 856
288 860
288 909
288 933
288 991
288 1003
289 376
289 394
289 478
289 481
289 508
289 509
289 676
289 842
289 857
289 861
289 910
289 934
289 992
289 1004
290 377
290 395
290 479
290 482
290 509
290 510
290 677
290 843
290 858
290 862
290 911
290 935
290 993
290 1005
291 378
291 396
291 480
291 483
291 510
291 511
291 678
291 844
291 859
291 863
291 912
291 936
291 994
291 1006
292 379
292 397
292 481
292 484
292 511
292 512
292 679
292 845
292 860
292 864
292 913
292 937
292 995
292 1007
293 380
293 398
293 482
293 485
293 512
293 513
293 680
293 846
293 861
293 865
293 914
293 938
293 996
293 1008
294 381
294 399
294 483
294 486
294 513
294 514
294 681
294 847
294 862
294 866
294 915
294 939
294 997
294 1009
295 382
295 400
295 484
295 487
295 514
295 515
295 682
295 848
295 863
295 867
295 916
295 940
295 998
295 1010
296 383
296 401
296 485
296 488
296 515
296 516
296 683
296 849
296 864
296 868
296 917
296 941
296 999
296 1011
297 384
297 402
297 486
297 489
297 516
297 517
297 684
297 850
297 865
297 869
297 918
297 942
297 1000
297 1012
298 385
298 403
298 487
298 490
298 517
298 518
298 685
298 851
298 866
298 870
298 919
298 943
298 1001
298 1013
299 386
299 404
299 488
299 491
299 518
299 519
299 686
299 852
299 867
299 871
299 920
299 944
299 1002
299 1014
300 387
300 405
300 489
300 492
300 519
300 520
300 687
300 853
300 868
300 872
300 921
300 945
300 1003
300 1015
301 344
301 388
301 406
301 490
301 493
301 520
301 521
301 854
301 869
301 873
301 922
301 946
301 1004
301 1016
302 345
302 389
302 407
302 491
302 494
302 521
302 522
302 855
302 870
302 874
302 923
302 947
302 1005
302 1017
303 346
303 390
303 408
303 492
303 495
303 522
303 523
303 856
303 871
303 875
303 924
303 948
303 1006
303 1018
304 347
304 391
304 409
304 493
304 496
304 523
304 524
304 857
304 872
304 876
304 925
304 949
304 1007
304 1019
305 348
305 392
305 410
305 494
305 497
305 524
305 525
305 858
305 873
305 877
305 926
305 950
305 1008
305 1020
306 349
306 393
306 411
306 495
306 498
306 525
306 526
306 859
306 874
306 878
306 927
306 951
306 1009
306 1021
307 350
307 394
307 412
307 496
307 499
307 526
307 527
307 860
307 875
307 879
307 928
307 952
307 1010
307 1022
308 351
308 395
308 413
308 497
308 500
308 527
308 528
308 861
308 876
308 880
308 929
308 953
308 1011
308 1023
309 352
309 396
309 414
309 498
309 501
309 528
309 529
309 862
309 877
309 881
309 930
309 954
309 1012
309 1024
310 353
310 397
310 415
310 499
310 502
310 529
310 530
310 863
310 878
310 882
310 931
310 955
310 1013
310 1025
311 354
311 398
311 416
311 500
311 503
311 530
311 531
311 864
311 879
311 883
311 932
311 956
311 1014
311 1026
312 355
312 399
312 417
312 501
312 504
312 531
312 532
312 865
312 880
312 884
312 933
312 957
312 1015
312 1027
313 356
313 400
313 418
313 502
313 505
313 532
313 533
313 866
313 881
313 885
313 934
313 958
313 1016
313 1028
314 357
314 401
314 419
314 503
314 506
314 533
314 534
314 867
314 882
314 886
314 935
314 959
314 1017
314 1029
315 358
315 402
315 420
315 504
315 507
315 534
315 535
315 868
315 883
315 887
315 936
315 960
315 1018
315 1030
316 359
316 403
316 421
316 505
316 508
316 535
316 536
316 869
316 884
316 888
316 937
316 961
316 1019
316 1031
317 360
317 404
317 422
317 506
317 509
317 536
317 537
317 688
317 870
317 885
317 889
317 938
317 962
317 1020
318 361
318 405
318 423
318 507
318 510
318 537
318 538
318 689
318 871
318 886
318 890
318 939
318 963
318 1021
319 362
319 406
319 424
319 508
319 511
319 538
319 539
319 690
319 872
319 887
319 891
319 940
319 964
319 1022
320 363
320 407
320 425
320 509
320 512
320 539
320 540
320 691
320 873
320 888
320 892
320 941
320 965
320 1023
321 364
321 408
321 426
321 510
321 513
321 540
321 541
321 692
321 874
321 889
321 893
321 942
321 966
321 1024
322 365
322 409
322 427
322 511
322 514
322 541
322 542
322 693
322 875
322 890
322 894
322 943
322 967
322 1025
323 366
323 410
323 428
323 512
323 515
323 542
323 543
323 694
323 876
323 891
323 895
323 944
323 968
323 1026
324 367
324 411
324 429
324 513
324 516
324 543
324 544
324 695
324 877
324 892
324 896
324 945
324 969
324 1027
325 368
325 412
325 430
325 514
325 517
325 544
325 545
325 696
325 878
325 893
325 897
325 946
325 970
325 1028
326 369
326 413
326 431
326 515
326 518
326 545
326 546
326 697
326 879
326 894
326 898
326 947
326 971
326 1029
327 370
327 414
327 432
327 516
327 519
327 546
327 547
327 698
327 880
327 895
327 899
327 948
327 972
327 1030
328 371
328 415
328 433
328 517
328 520
328 547
328 548
328 699
328 881
328 896
328 900
328 949
328 973
328 1031
329 372
329 416
329 434
329 518
329 521
329 548
329 549
329 688
329 700
329 882
329 897
329 901
329 950
329 974
330 373
330 417
330 435
330 519
330 522
330 549
330 550
330 689
330 701
330 883
330 898
330 902
330 951
330 975
331 374
331 418
331 436
331 520
331 523
331 550
331 551
331 690
331 702
331 884
331 899
331 903
331 952
331 976
332 375
332 419
332 437
332 521
332 524
332 551
332 552
332 691
332 703
332 885
332 900
332 904
332 953
332 977
333 376
333 420
333 438
333 522
333 525
333 552
333 553
333 692
333 704
333 886
333 901
333 905
333 954
333 978
334 377
334 421
334 439
334 523
334 526
334 553
334 554
334 693
334 705
334 887
334 902
334 906
334 955
334 979
335 378
335 422
335 440
335 524
335 527
335 554
335 555
335 694
335 706
335 888
335 903
335 907
335 956
335 980
336 379
336 423
336 441
336 525
336 528
336 555
336 556
336 695
336 707
336 889
336 904
336 908
336 957
336 981
337 380
337 424
337 442
337 526
337 529
337 556
337 557
337 696
337 708
337 890
337 905
337 909
337 958
337 982
338 381
338 425
338 443
338 527
338 530
338 557
338 558
338 697
338 709
338 891
338 906
338 910
338 959
338 983
339 382
339 426
339 444
339 528
339 531
339 558
339 559
339 698
339 710
339 892
339 907
339 911
339 960
339 984
340 383
340 427
340 445
340 529
340 532
340 559
340 560
340 699
340 711
340 893
340 908
340 912
340 961
340 985
341 384
341 428
341 446
341 530
341 533
341 560
341 561
341 700
341 712
341 894
341 909
341 913
341 962
341 986
342 385
342 429
342 447
342 531
342 534
342 561
342 562
342 701
342 713
342 895
342 910
342 914
342 963
342 987
343 386
343 430
343 448
343 532
343 535
343 562
343 563
343 702
343 714
343 896
343 911
343 915
343 964
343 988
344 720
344 731
344 741
344 767
344 868
344 875
344 985
345 721
345 732
345 742
345 768
345 869
345 876
345 986
346 722
346 733
346 743
346 769
346 870
346 877
346 987
347 723
347 734
347 744
347 770
347 871
347 878
347 988
348 724
348 735
348 745
348 771
348 872
348 879
348 989
349 725
349 736
349 746
349 772
349 873
349 880
349 990
350 726
350 737
350 747
350 773
350 874
350 881
350 991
351 727
351 738
351 748
351 774
351 875
351 882
351 992
352 728
352 739
352 749
352 775
352 876
352 883
352 993
353 729
353 740
353 750
353 776
353 877
353 884
353 994
354 730
354 741
354 751
354 777
354 878
354 885
354 995
355 731
355 742
355 752
355 778
355 879
355 886
355 996
356 732
356 743
356 753
356 779
356 880
356 887
356 997
357 733
357 744
357 754
357 780
357 881
357 888
357 998
358 734
358 745
358 755
358 781
358 882
358 889
358 999
359 735
359 746
359 756
359 782
359 883
359 890
359 1000
360 736
360 747
360 757
360 783
360 884
360 891
360 1001
361 737
361 748
361 758
361 784
361 885
361 892
361 1002
362 738
362 749
362 759
362 785
362 886
362 893
362 1003
363 739
363 750
363 760
363 786
363 887
363 894
363 1004
364 740
364 751
364 761
364 787
364 888
364 895
364 1005
365 741
365 752
365 762
365 788
365 889
365 896
365 1006
366 742
366 753
366 763
366 789
366 890
366 897
366 1007
367 743
367 754
367 764
367 790
367 891
367 898
367 1008
368 744
368 755
368 765
368 791
368 892
368 899
368 1009
369 745
369 756
369 766
369 792
369 893
369 900
369 1010
370 746
370 757
370 767
370 793
370 894
370 901
370 1011
371 747
371 758
371 768
371 794
371 895
371 902
371 1012
372 748
372 759
372 769
372 795
372 896
372 903
372 1013
373 749
373 760
373 770
373 796
373 897
373 904
373 1014
374 750
374 761
374 771
374 797
374 898
374 905
374 1015
375 751
375 762
375 772
375 798
375 899
375 906
375 1016
376 752
376 763
376 773
376 799
376 900
376 907
376 1017
377 753
377 764
377 774
377 800
377 901
377 908
377 1018
378 754
378 765
378 775
378 801
378 902
378 909
378 1019
379 755
379 766
379 776
379 802
379 903
379 910
379 1020
380 756
380 767
380 777
380 803
380 904
380 911
380 1021
381 757
381 768
381 778
381 804
381 905
381 912
381 1022
382 758
382 769
382 779
382 805
382 906
382 913
382 1023
383 759
383 770
383 780
383 806
383 907
383 914
383 1024
384 760
384 771
384 781
384 807
384 908
384 915
384 1025
385 761
385 772
385 782
385 808
385 909
385 916
385 1026
386 762
386 773
386 783
386 809
386 910
386 917
386 1027
387 763
387 774
387 784
387 810
387 911
387 918
387 1028
388 764
388 775
388 785
388 811
388 912
388 919
388 1029
389 765
389 776
389 786
389 812
389 913
389 920
389 1030
390 766
390 777
390 787
390 813
390 914
390 921
390 1031
391 688
391 767
391 778
391 788
391 814
391 915
391 922
392 689
392 768
392 779
392 789
392 815
392 916
392 923
393 690
393 769
393 780
393 790
393 816
393 917
393 924
394 691
394 770
394 781
394 791
394 817
394 918
394 925
395 692
395 771
395 782
395 792
395 818
395 919
395 926
396 693
396 772
396 783
396 793
396 819
396 920
396 927
397 694
397 773
397 784
397 794
397 820
397 921
397 928
398 695
398 774
398 785
398 795
398 821
398 922
398 929
399 696
399 775
399 786
399 796
399 822
399 923
399 930
400 697
400 776
400 787
400 797
400 823
400 924
400 931
401 698
401 777
401 788
401 798
401 824
401 925
401 932
402 699
402 778
402 789
402 799
402 825
402 926
402 933
403 700
403 779
403 790
403 800
403 826
403 927
403 934
404 701
404 780
404 791
404 801
404 827
404 928
404 935
405 702
405 781
405 792
405 802
405 828
405 929
405 936
406 703
406 782
406 793
406 803
406 829
406 930
406 937
407 704
407 783
407 794
407 804
407 830
407 931
407 938
408 705
408 784
408 795
408 805
408 831
408 932
408 939
409 706
409 785
409 796
409 806
409 832
409 933
409 940
410 707
410 786
410 797
410 807
410 833
410 934
410 941
411 708
411 787
411 798
411 808
411 834
411 935
411 942
412 709
412 788
412 799
412 809
412 835
412 936
412 943
413 710
413 789
413 800
413 810
413 836
413 937
413 944
414 711
414 790
414 801
414 811
414 837
414 938
414 945
415 712
415 791
415 802
415 812
415 838
415 939
415 946
416 713
416 792
416 803
416 813
416 839
416 940
416 947
417 714
417 793
417 804
417 814
417 840
417 941
417 948
418 715
418 794
418 805
418 815
418 841
418 942
418 949
419 716
419 795
419 806
419 816
419 842
419 943
419 950
420 717
420 796
420 807
420 817
420 843
420 944
420 951
421 718
421 797
421 808
421 818
421 844
421 945
421 952
422 719
422 798
422 809
422 819
422 845
422 946
422 953
423 720
423 799
423 810
423 820
423 846
423 947
423 954
424 721
424 800
424 811
424 821
424 847
424 948
424 955
425 722
425 801
425 812
425 822
425 848
425 949
425 956
426 723
426 802
426 813
426 823
426 849
426 950
426 957
427 724
427 803
427 814
427 824
427 850
427 951
427 958
428 725
428 804
428 815
428 825
428 851
428 952
428 959
429 726
429 805
429 816
429 826
429 852
429 953
429 960
430 727
430 806
430 817
430 827
430 853
430 954
430 961
431 728
431 807
431 818
431 828
431 854
431 955
431 962
432 729
432 808
432 819
432 829
432 855
432 956
432 963
433 730
433 809
433 820
433 830
433 856
433 957
433 964
434 731
434 810
434 821
434 831
434 857
434 958
434 965
435 732
435 811
435 822
435 832
435 858
435 959
435 966
436 733
436 812
436 823
436 833
436 859
436 960
436 967
437 734
437 813
437 824
437 834
437 860
437 961
437 968
438 735
438 814
438 825
438 835
438 861
438 962
438 969
439 736
439 815
439 826
439 836
439 862
439 963
439 970
440 737
440 816
440 827
440 837
440 863
440 964
440 971
441 738
441 817
441 828
441 838
441 864
441 965
441 972
442 739
442 818
442 829
442 839
442 865
442 966
442 973
443 740
443 819
443 830
443 840
443 866
443 967
443 974
444 741
444 820
444 831
444 841
444 867
444 968
444 975
445 742
445 821
445 832
445 842
445 868
445 969
445 976
446 743
446 822
446 833
446 843
446 869
446 970
446 977
447 744
447 823
447 834
447 844
447 870
447 971
447 978
448 745
448 824
448 835
448 845
448 871
448 972
448 979
449 746
449 825
449 836
449 846
449 872
449 973
449 980
450 747
450 826
450 837
450 847
450 873
450 974
450 981
451 748
451 827
451 838
451 848
451 874
451 975
451 982
452 749
452 828
452 839
452 849
452 875
452 976
452 983
453 750
453 829
453 840
453 850
453 876
453 977
453 984
454 751
454 830
454 841
454 851
454 877
454 978
454 985
455 752
455 831
455 842
455 852
455 878
455 979
455 986
456 753
456 832
456 843
456 853
456 879
456 980
456 987
457 754
457 833
457 844
457 854
457 880
457 981
457 988
458 755
458 834
458 845
458 855
458 881
458 982
458 989
459 756
459 835
459 846
459 856
459 882
459 983
459 990
460 757
460 836
460 847
460 857
460 883
460 984
460 991
461 758
461 837
461 848
461 858
461 884
461 985
461 992
462 759
462 838
462 849
462 859
462 885
462 986
462 993
463 760
463 839
463 850
463 860
463 886
463 987
463 994
464 761
464 840
464 851
464 861
464 887
464 988
464 995
465 762
465 841
465 852
465 862
465 888
465 989
465 996
466 763
466 842
466 853
466 863
466 889
466 990
466 997
467 764
467 843
467 854
467 864
467 890
467 991
467 998
468 765
468 844
468 855
468 865
468 891
468 992
468 999
469 766
469 845
469 856
469 866
469 892
469 993
469 1000
470 767
470 846
470 857
470 867
470 893
470 994
470 1001
471 768
471 847
471 858
471 868
471 894
471 995
471 1002
472 769
472 848
472 859
472 869
472 895
472 996
472 1003
473 770
473 849
473 860
473 870
473 896
473 997
473 1004
474 771
474 850
474 861
474 871
474 897
474 998
474 1005
475 772
475 851
475 862
475 872
475 898
475 999
475 1006
476 773
476 852
476 863
476 873
476 899
476 1000
476 1007
477 774
477 853
477 864
477 874
477 900
477 1001
477 1008
478 775
478 854
478 865
478 875
478 901
478 1002
478 1009
479 776
479 855
479 866
479 876
479 902
479 1003
479 1010
480 777
480 856
480 867
480 877
480 903
480 1004
480 1011
481 778
481 857
481 868
481 878
481 904
481 1005
481 1012
482 779
482 858
482 869
482 879
482 905
482 1006
482 1013
483 780
483 859
483 870
483 880
483 906
483 1007
483 1014
484 781
484 860
484 871
484 881
484 907
484 1008
484 1015
485 782
485 861
485 872
485 882
485 908
485 1009
485 1016
486 783
486 862
486 873
486 883
486 909
486 1010
486 1017
487 784
487 863
487 874
487 884
487 910
487 1011
487 1018
488 785
488 864
488 875
488 885
488 911
488 1012
488 1019
489 786
489 865
489 876
489 886
489 912
489 1013
489 1020
490 787
490 866
490 877
490 887
490 913
490 1014
490 1021
491 788
491 867
491 878
491 888
491 914
491 1015
491 1022
492 789
492 868
492 879
492 889
492 915
492 1016
492 1023
493 790
493 869
493 880
493 890
493 916
493 1017
493 1024
494 791
494 870
494 881
494 891
494 917
494 1018
494 1025
495 792
495 871
495 882
495 892
495 918
495 1019
495 1026
496 793
496 872
496 883
496 893
496 919
496 1020
496 1027
497 794
497 873
497 884
497 894
497 920
497 1021
497 1028
498 795
498 874
498 885
498 895
498 921
498 1022
498 1029
499 796
499 875
499 886
499 896
499 922
499 1023
499 1030
500 797
500 876
500 887
500 897
500 923
500 1024
500 1031
501 688
501 798
501 877
501 888
501 898
501 924
501 1025
502 689
502 799
502 878
502 889
502 899
502 925
502 1026
503 690
503 800
503 879
503 890
503 900
503 926
503 1027
504 691
504 801
504 880
504 891
504 901
504 927
504 1028
505 692
505 802
505 881
505 892
505 902
505 928
505 1029
506 693
506 803
506 882
506 893
506 903
506 929
506 1030
507 694
507 804
507 883
507 894
507 904
507 930
507 1031
508 688
508 695
508 805
508 884
508 895
508 905
508 931
509 689
509 696
509 806
509 885
509 896
509 906
509 932
510 690
510 697
510 807
510 886
510 897
510 907
510 933
511 691
511 698
511 808
511 887
511 898
511 908
511 934
512 692
512 699
512 809
512 888
512 899
512 909
512 935
513 693
513 700
513 810
513 889
513 900
513 910
513 936
514 694
514 701
514 811
514 890
514 901
514 911
514 937
515 695
515 702
515 812
515 891
515 902
515 912
515 938
516 696
516 703
516 813
516 892
516 903
516 913
516 939
517 697
517 704
517 814
517 893
517 904
517 914
517 940
518 698
518 705
518 815
518 894
518 905
518 915
518 941
519 699
519 706
519 816
519 895
519 906
519 916
519 942
520 700
520 707
520 817
520 896
520 907
520 917
520 943
521 701
521 708
521 818
521 897
521 908
521 918
521 944
522 702
522 709
522 819
522 898
522 909
522 919
522 945
523 703
523 710
523 820
523 899
523 910
523 920
523 946
524 704
524 711
524 821
524 900
524 911
524 921
524 947
525 705
525 712
525 822
525 901
525 912
525 922
525 948
526 706
526 713
526 823
526 902
526 913
526 923
526 949
527 707
527 714
527 824
527 903
527 914
527 924
527 950
528 708
528 715
528 825
528 904
528 915
528 925
528 951
529 709
529 716
529 826
529 905
529 916
529 926
529 952
530 710
530 717
530 827
530 906
530 917
530 927
530 953
531 711
531 718
531 828
531 907
531 918
531 928
531 954
532 712
532 719
532 829
532 908
532 919
532 929
532 955
533 713
533 720
533 830
533 909
533 920
533 930
533 956
534 714
534 721
534 831
534 910
534 921
534 931
534 957
535 715
535 722
535 832
535 911
535 922
535 932
535 958
536 716
536 723
536 833
536 912
536 923
536 933
536 959
537 717
537 724
537 834
537 913
537 924
537 934
537 960
538 718
538 725
538 835
538 914
538 925
538 935
538 961
539 719
539 726
539 836
539 915
539 926
539 936
539 962
540 720
540 727
540 837
540 916
540 927
540 937
540 963
541 721
541 728
541 838
541 917
541 928
541 938
541 964
542 722
542 729
542 839
542 918
542 929
542 939
542 965
543 723
543 730
543 840
543 919
543 930
543 940
543 966
544 724
544 731
544 841
544 920
544 931
544 941
544 967
545 725
545 732
545 842
545 921
545 932
545 942
545 968
546 726
546 733
546 843
546 922
546 933
546 943
546 969
547 727
547 734
547 844
547 923
547 934
547 944
547 970
548 728
548 735
548 845
548 924
548 935
548 945
548 971
549 729
549 736
549 846
549 925
549 936
549 946
549 972
550 730
550 737
550 847
550 926
550 937
550 947
550 973
551 731
551 738
551 848
551 927
551 938
551 948
551 974
552 732
552 739
552 849
552 928
552 939
552 949
552 975
553 733
553 740
553 850
553 929
553 940
553 950
553 976
554 734
554 741
554 851
554 930
554 941
554 951
554 977
555 735
555 742
555 852
555 931
555 942
555 952
555 978
556 736
556 743
556 853
556 932
556 943
556 953
556 979
557 737
557 744
557 854
557 933
557 944
557 954
557 980
558 738
558 745
558 855
558 934
558 945
558 955
558 981
559 739
559 746
559 856
559 935
559 946
559 956
559 982
560 740
560 747
560 857
560 936
560 947
560 957
560 983
561 741
561 748
561 858
561 937
561 948
561 958
561 984
562 742
562 749
562 859
562 938
562 949
562 959
562 985
563 743
563 750
563 860
563 939
563 950
563 960
563 986
564 744
564 751
564 861
564 940
564 951
564 961
564 987
565 745
565 752
565 862
565 941
565 952
565 962
565 988
566 746
566 753
566 863
566 942
566 953
566 963
566 989
567 747
567 754
567 864
567 943
567 954
567 964
567 990
568 748
568 755
568 865
568 944
568 955
568 965
568 991
569 749
569 756
569 866
569 945
569 956
569 966
569 992
570 750
570 757
570 867
570 946
570 957
570 967
570 993
571 751
571 758
571 868
571 947
571 958
571 968
571 994
572 752
572 759
572 869
572 948
572 959
572 969
572 995
573 753
573 760
573 870
573 949
573 960
573 970
573 996
574 754
574 761
574 871
574 950
574 961
574 971
574 997
575 755
575 762
575 872
575 951
575 962
575 972
575 998
576 756
576 763
576 873
576 952
576 963
576 973
576 999
577 757
577 764
577 874
577 953
577 964
577 974
577 1000
578 758
578 765
578 875
578 954
578 965
578 975
578 1001
579 759
579 766
579 876
579 955
579 966
579 976
579 1002
580 760
580 767
580 877
580 956
580 967
580 977
580 1003
581 761
581 768
581 878
581 957
581 968
581 978
581 1004
582 762
582 769
582 879
582 958
582 969
582 979
582 1005
583 763
583 770
583 880
583 959
583 970
583 980
583 1006
584 764
584 771
584 881
584 960
584 971
584 981
584 1007
585 765
585 772
585 882
585 961
585 972
585 982
585 1008
586 766
586 773
586 883
586 962
586 973
586 983
586 1009
587 767
587 774
587 884
587 963
587 974
587 984
587 1010
588 768
588 775
588 885
588 964
588 975
588 985
588 1011
589 769
589 776
589 886
589 965
589 976
589 986
589 1012
590 770
590 777
590 887
590 966
590 977
590 987
590 1013
591 771
591 778
591 888
591 967
591 978
591 988
591 1014
592 772
592 779
592 889
592 968
592 979
592 989
592 1015
593 773
593 780
593 890
593 969
593 980
593 990
593 1016
594 774
594 781
594 891
594 970
594 981
594 991
594 1017
595 775
595 782
595 892
595 971
595 982
595 992
595 1018
596 776
596 783
596 893
596 972
596 983
596 993
596 1019
597 777
597 784
597 894
597 973
597 984
597 994
597 1020
598 778
598 785
598 895
598 974
598 985
598 995
598 1021
599 779
599 786
599 896
599 975
599 986
599 996
599 1022
600 780
600 787
600 897
600 976
600 987
600 997
600 1023
601 781
601 788
601 898
601 977
601 988
601 998
601 1024
602 782
602 789
602 899
602 978
602 989
602 999
602 1025
603 783
603 790
603 900
603 979
603 990
603 1000
603 1026
604 784
604 791
604 901
604 980
604 991
604 1001
604 1027
605 785
605 792
605 902
605 981
605 992
605 1002
605 1028
606 786
606 793
606 903
606 982
606 993
606 1003
606 1029
607 787
607 794
607 904
607 983
607 994
607 1004
607 1030
608 788
608 795
608 905
608 984
608 995
608 1005
608 1031
609 688
609 789
609 796
609 906
609 985
609 996
609 1006
610 689
610 790
610 797
610 907
610 986
610 997
610 1007
611 690
611 791
611 798
611 908
611 987
611 998
611 1008
612 691
612 792
612 799
612 909
612 988
612 999
612 1009
613 692
613 793
613 800
613 910
613 989
613 1000
613 1010
614 693
614 794
614 801
614 911
614 990
614 1001
614 1011
615 694
615 795
615 802
615 912
615 991
615 1002
615 1012
616 695
616 796
616 803
616 913
616 992
616 1003
616 1013
617 696
617 797
617 804
617 914
617 993
617 1004
617 1014
618 697
618 798
618 805
618 915
618 994
618 1005
618 1015
619 698
619 799
619 806
619 916
619 995
619 1006
619 1016
620 699
620 800
620 807
620 917
620 996
620 1007
620 1017
621 700
621 801
621 808
621 918
621 997
621 1008
621 1018
622 701
622 802
622 809
622 919
622 998
622 1009
622 1019
623 702
623 803
623 810
623 920
623 999
623 1010
623 1020
624 703
624 804
624 811
624 921
624 1000
624 1011
624 1021
625 704
625 805
625 812
625 922
625 1001
625 1012
625 1022
626 705
626 806
626 813
626 923
626 1002
626 1013
626 1023
627 706
627 807
627 814
627 924
627 1003
627 1014
627 1024
628 707
628 808
628 815
628 925
628 1004
628 1015
628 1025
629 708
629 809
629 816
629 926
629 1005
629 1016
629 1026
630 709
630 810
630 817
630 927
630 1006
630 1017
630 1027
631 710
631 811
631 818
631 928
631 1007
631 1018
631 1028
632 711
632 812
632 819
632 929
632 1008
632 1019
632 1029
633 712
633 813
633 820
633 930
633 1009
633 1020
633 1030
634 713
634 814
634 821
634 931
634 1010
634 1021
634 1031
635 688
635 714
635 815
635 822
635 932
635 1011
635 1022
636 689
636 715
636 816
636 823
636 933
636 1012
636 1023
637 690
637 716
637 817
637 824
637 934
637 1013
637 1024
638 691
638 717
638 818
638 825
638 935
638 1014
638 1025
639 692
639 718
639 819
639 826
639 936
639 1015
639 1026
640 693
640 719
640 820
640 827
640 937
640 1016
640 1027
641 694
641 720
641 821
641 828
641 938
641 1017
641 1028
642 695
642 721
642 822
642 829
642 939
642 1018
642 1029
643 696
643 722
643 823
643 830
643 940
643 1019
643 1030
644 697
644 723
644 824
644 831
644 941
644 1020
644 1031
645 688
645 698
645 724
645 825
645 832
645 942
645 1021
646 689
646 699
646 725
646 826
646 833
646 943
646 1022
647 690
647 700
647 726
647 827
647 834
647 944
647 1023
648 691
648 701
648 727
648 828
648 835
648 945
648 1024
649 692
649 702
649 728
649 829
649 836
649 946
649 1025
650 693
650 703
650 729
650 830
650 837
650 947
650 1026
651 694
651 704
651 730
651 831
651 838
651 948
651 1027
652 695
652 705
652 731
652 832
652 839
652 949
652 1028
653 696
653 706
653 732
653 833
653 840
653 950
653 1029
654 697
654 707
654 733
654 834
654 841
654 951
654 1030
655 698
655 708
655 734
655 835
655 842
655 952
655 1031
656 688
656 699
656 709
656 735
656 836
656 843
656 953
657 689
657 700
657 710
657 736
657 837
657 844
657 954
658 690
658 701
658 711
658 737
658 838
658 845
658 955
659 691
659 702
659 712
659 738
659 839
659 846
659 956
660 692
660 703
660 713
660 739
660 840
660 847
660 957
661 693
661 704
661 714
661 740
661 841
661 848
661 958
662 694
662 705
662 715
662 741
662 842
662 849
662 959
663 695
663 706
663 716
663 742
663 843
663 850
663 960
664 696
664 707
664 717
664 743
664 844
664 851
664 961
665 697
665 708
665 718
665 744
665 845
665 852
665 962
666 698
666 709
666 719
666 745
666 846
666 853
666 963
667 699
667 710
667 720
667 746
667 847
667 854
667 964
668 700
668 711
668 721
668 747
668 848
668 855
668 965
669 701
669 712
669 722
669 748
669 849
669 856
669 966
670 702
670 713
670 723
670 749
670 850
670 857
670 967
671 703
671 714
671 724
671 750
671 851
671 858
671 968
672 704
672 715
672 725
672 751
672 852
672 859
672 969
673 705
673 716
673 726
673 752
673 853
673 860
673 970
674 706
674 717
674 727
674 753
674 854
674 861
674 971
675 707
675 718
675 728
675 754
675 855
675 862
675 972
676 708
676 719
676 729
676 755
676 856
676 863
676 973
677 709
677 720
677 730
677 756
677 857
677 864
677 974
678 710
678 721
678 731
678 757
678 858
678 865
678 975
679 711
679 722
679 732
679 758
679 859
679 866
679 976
680 712
680 723
680 733
680 759
680 860
680 867
680 977
681 713
681 724
681 734
681 760
681 861
681 868
681 978
682 714
682 725
682 735
682 761
682 862
682 869
682 979
683 715
683 726
683 736
683 762
683 863
683 870
683 980
684 716
684 727
684 737
684 763
684 864
684 871
684 981
685 717
685 728
685 738
685 764
685 865
685 872
685 982
686 718
686 729
686 739
686 765
686 866
686 873
686 983
687 719
687 730
687 740
687 766
687 867
687 874
687 984
