# Cayley graph of Z_335 rtimes_96 Z_3, degree 14, target diameter 3
# element (i,j) <-> index j*335+i ; connection set S = [617, 688, 422, 868, 343, 977, 450, 770, 524, 846, 530, 825, 531, 989]
N 1005
0 343
0 422
0 450
0 524
0 530
0 531
0 617
0 688
0 770
0 825
0 846
0 868
0 977
0 989
1 344
1 423
1 451
1 525
1 531
1 532
1 618
1 689
1 771
1 826
1 847
1 869
1 978
1 990
2 345
2 424
2 452
2 526
2 532
2 533
2 619
2 690
2 772
2 827
2 848
2 870
2 979
2 991
3 346
3 425
3 453
3 527
3 533
3 534
3 620
3 691
3 773
3 828
3 849
3 871
3 980
3 992
4 347
4 426
4 454
4 528
4 534
4 535
4 621
4 692
4 774
4 829
4 850
4 872
4 981
4 993
5 348
5 427
5 455
5 529
5 535
5 536
5 622
5 693
5 775
5 830
5 851
5 873
5 982
5 994
6 349
6 428
6 456
6 530
6 536
6 537
6 623
6 694
6 776
6 831
6 852
6 874
6 983
6 995
7 350
7 429
7 457
7 531
7 537
7 538
7 624
7 695
7 777
7 832
7 853
7 875
7 984
7 996
8 351
8 430
8 458
8 532
8 538
8 539
8 625
8 696
8 778
8 833
8 854
8 876
8 985
8 997
9 352
9 431
9 459
9 533
9 539
9 540
9 626
9 697
9 779
9 834
9 855
9 877
9 986
9 998
10 353
10 432
10 460
10 534
10 540
10 541
10 627
10 698
10 780
10 835
10 856
10 878
10 987
10 999
11 354
11 433
11 461
11 535
11 541
11 542
11 628
11 699
11 781
11 836
11 857
11 879
11 988
11 1000
12 355
12 434
12 462
12 536
12 542
12 543
12 629
12 700
12 782
12 837
12 858
12 880
12 989
12 1001
13 356
13 435
13 463
13 537
13 543
13 544
13 630
13 701
13 783
13 838
13 859
13 881
13 990
13 1002
14 357
14 436
14 464
14 538
14 544
14 545
14 631
14 702
14 784
14 839
14 860
14 882
14 991
14 1003
15 358
15 437
15 465
15 539
15 545
15 546
15 632
15 703
15 785
15 840
15 861
15 883
15 992
15 1004
16 359
16 438
16 466
16 540
16 546
16 547
16 633
16 670
16 704
16 786
16 841
16 862
16 884
16 993
17 360
17 439
17 467
17 541
17 547
17 548
17 634
17 671
17 705
17 787
17 842
17 863
17 885
17 994
18 361
18 440
18 468
18 542
18 548
18 549
18 635
18 672
18 706
18 788
18 843
18 864
18 886
18 995
19 362
19 441
19 469
19 543
19 549
19 550
19 636
19 673
19 707
19 789
19 844
19 865
19 887
19 996
20 363
20 442
20 470
20 544
20 550
20 551
20 637
20 674
20 708
20 790
20 845
20 866
20 888
20 997
21 364
21 443
21 471
21 545
21 551
21 552
21 638
21 675
21 709
21 791
21 846
21 867
21 889
21 998
22 365
22 444
22 472
22 546
22 552
22 553
22 639
22 676
22 710
22 792
22 847
22 868
22 890
22 999
23 366
23 445
23 473
23 547
23 553
23 554
23 640
23 677
23 711
23 793
23 848
23 869
23 891
23 1000
24 367
24 446
24 474
24 548
24 554
24 555
24 641
24 678
24 712
24 794
24 849
24 870
24 892
24 1001
25 368
25 447
25 475
25 549
25 555
25 556
25 642
25 679
25 713
25 795
25 850
25 871
25 893
25 1002
26 369
26 448
26 476
26 550
26 556
26 557
26 643
26 680
26 714
26 796
26 851
26 872
26 894
26 1003
27 370
27 449
27 477
27 551
27 557
27 558
27 644
27 681
27 715
27 797
27 852
27 873
27 895
27 1004
28 371
28 450
28 478
28 552
28 558
28 559
28 645
28 670
28 682
28 716
28 798
28 853
28 874
28 896
29 372
29 451
29 479
29 553
29 559
29 560
29 646
29 671
29 683
29 717
29 799
29 854
29 875
29 897
30 373
30 452
30 480
30 554
30 560
30 561
30 647
30 672
30 684
30 718
30 800
30 855
30 876
30 898
31 374
31 453
31 481
31 555
31 561
31 562
31 648
31 673
31 685
31 719
31 801
31 856
31 877
31 899
32 375
32 454
32 482
32 556
32 562
32 563
32 649
32 674
32 686
32 720
32 802
32 857
32 878
32 900
33 376
33 455
33 483
33 557
33 563
33 564
33 650
33 675
33 687
33 721
33 803
33 858
33 879
33 901
34 377
34 456
34 484
34 558
34 564
34 565
34 651
34 676
34 688
34 722
34 804
34 859
34 880
34 902
35 378
35 457
35 485
35 559
35 565
35 566
35 652
35 677
35 689
35 723
35 805
35 860
35 881
35 903
36 379
36 458
36 486
36 560
36 566
36 567
36 653
36 678
36 690
36 724
36 806
36 861
36 882
36 904
37 380
37 459
37 487
37 561
37 567
37 568
37 654
37 679
37 691
37 725
37 807
37 862
37 883
37 905
38 381
38 460
38 488
38 562
38 568
38 569
38 655
38 680
38 692
38 726
38 808
38 863
38 884
38 906
39 382
39 461
39 489
39 563
39 569
39 570
39 656
39 681
39 693
39 727
39 809
39 864
39 885
39 907
40 383
40 462
40 490
40 564
40 570
40 571
40 657
40 682
40 694
40 728
40 810
40 865
40 886
40 908
41 384
41 463
41 491
41 565
41 571
41 572
41 658
41 683
41 695
41 729
41 811
41 866
41 887
41 909
42 385
42 464
42 492
42 566
42 572
42 573
42 659
42 684
42 696
42 730
42 812
42 867
42 888
42 910
43 386
43 465
43 493
43 567
43 573
43 574
43 660
43 685
43 697
43 731
43 813
43 868
43 889
43 911
44 387
44 466
44 494
44 568
44 574
44 575
44 661
44 686
44 698
44 732
44 814
44 869
44 890
44 912
45 388
45 467
45 495
45 569
45 575
45 576
45 662
45 687
45 699
45 733
45 815
45 870
45 891
45 913
46 389
46 468
46 496
46 570
46 576
46 577
46 663
46 688
46 700
46 734
46 816
46 871
46 892
46 914
47 390
47 469
47 497
47 571
47 577
47 578
47 664
47 689
47 701
47 735
47 817
47 872
47 893
47 915
48 391
48 470
48 498
48 572
48 578
48 579
48 665
48 690
48 702
48 736
48 818
48 873
48 894
48 916
49 392
49 471
49 499
49 573
49 579
49 580
49 666
49 691
49 703
49 737
49 819
49 874
49 895
49 917
50 393
50 472
50 500
50 574
50 580
50 581
50 667
50 692
50 704
50 738
50 820
50 875
50 896
50 918
51 394
51 473
51 501
51 575
51 581
51 582
51 668
51 693
51 705
51 739
51 821
51 876
51 897
51 919
52 395
52 474
52 502
52 576
52 582
52 583
52 669
52 694
52 706
52 740
52 822
52 877
52 898
52 920
53 335
53 396
53 475
53 503
53 577
53 583
53 584
53 695
53 707
53 741
53 823
53 878
53 899
53 921
54 336
54 397
54 476
54 504
54 578
54 584
54 585
54 696
54 708
54 742
54 824
54 879
54 900
54 922
55 337
55 398
55 477
55 505
55 579
55 585
55 586
55 697
55 709
55 743
55 825
55 880
55 901
55 923
56 338
56 399
56 478
56 506
56 580
56 586
56 587
56 698
56 710
56 744
56 826
56 881
56 902
56 924
57 339
57 400
57 479
57 507
57 581
57 587
57 588
57 699
57 711
57 745
57 827
57 882
57 903
57 925
58 340
58 401
58 480
58 508
58 582
58 588
58 589
58 700
58 712
58 746
58 828
58 883
58 904
58 926
59 341
59 402
59 481
59 509
59 583
59 589
59 590
59 701
59 713
59 747
59 829
59 884
59 905
59 927
60 342
60 403
60 482
60 510
60 584
60 590
60 591
60 702
60 714
60 748
60 830
60 885
60 906
60 928
61 343
61 404
61 483
61 511
61 585
61 591
61 592
61 703
61 715
61 749
61 831
61 886
61 907
61 929
62 344
62 405
62 484
62 512
62 586
62 592
62 593
62 704
62 716
62 750
62 832
62 887
62 908
62 930
63 345
63 406
63 485
63 513
63 587
63 593
63 594
63 705
63 717
63 751
63 833
63 888
63 909
63 931
64 346
64 407
64 486
64 514
64 588
64 594
64 595
64 706
64 718
64 752
64 834
64 889
64 910
64 932
65 347
65 408
65 487
65 515
65 589
65 595
65 596
65 707
65 719
65 753
65 835
65 890
65 911
65 933
66 348
66 409
66 488
66 516
66 590
66 596
66 597
66 708
66 720
66 754
66 836
66 891
66 912
66 934
67 349
67 410
67 489
67 517
67 591
67 597
67 598
67 709
67 721
67 755
67 837
67 892
67 913
67 935
68 350
68 411
68 490
68 518
68 592
68 598
68 599
68 710
68 722
68 756
68 838
68 893
68 914
68 936
69 351
69 412
69 491
69 519
69 593
69 599
69 600
69 711
69 723
69 757
69 839
69 894
69 915
69 937
70 352
70 413
70 492
70 520
70 594
70 600
70 601
70 712
70 724
70 758
70 840
70 895
70 916
70 938
71 353
71 414
71 493
71 521
71 595
71 601
71 602
71 713
71 725
71 759
71 841
71 896
71 917
71 939
72 354
72 415
72 494
72 522
72 596
72 602
72 603
72 714
72 726
72 760
72 842
72 897
72 918
72 940
73 355
73 416
73 495
73 523
73 597
73 603
73 604
73 715
73 727
73 761
73 843
73 898
73 919
73 941
74 356
74 417
74 496
74 524
74 598
74 604
74 605
74 716
74 728
74 762
74 844
74 899
74 920
74 942
75 357
75 418
75 497
75 525
75 599
75 605
75 606
75 717
75 729
75 763
75 845
75 900
75 921
75 943
76 358
76 419
76 498
76 526
76 600
76 606
76 607
76 718
76 730
76 764
76 846
76 901
76 922
76 944
77 359
77 420
77 499
77 527
77 601
77 607
77 608
77 719
77 731
77 765
77 847
77 902
77 923
77 945
78 360
78 421
78 500
78 528
78 602
78 608
78 609
78 720
78 732
78 766
78 848
78 903
78 924
78 946
79 361
79 422
79 501
79 529
79 603
79 609
79 610
79 721
79 733
79 767
79 849
79 904
79 925
79 947
80 362
80 423
80 502
80 530
80 604
80 610
80 611
80 722
80 734
80 768
80 850
80 905
80 926
80 948
81 363
81 424
81 503
81 531
81 605
81 611
81 612
81 723
81 735
81 769
81 851
81 906
81 927
81 949
82 364
82 425
82 504
82 532
82 606
82 612
82 613
82 724
82 736
82 770
82 852
82 907
82 928
82 950
83 365
83 426
83 505
83 533
83 607
83 613
83 614
83 725
83 737
83 771
83 853
83 908
83 929
83 951
84 366
84 427
84 506
84 534
84 608
84 614
84 615
84 726
84 738
84 772
84 854
84 909
84 930
84 952
85 367
85 428
85 507
85 535
85 609
85 615
85 616
85 727
85 739
85 773
85 855
85 910
85 931
85 953
86 368
86 429
86 508
86 536
86 610
86 616
86 617
86 728
86 740
86 774
86 856
86 911
86 932
86 954
87 369
87 430
87 509
87 537
87 611
87 617
87 618
87 729
87 741
87 775
87 857
87 912
87 933
87 955
88 370
88 431
88 510
88 538
88 612
88 618
88 619
88 730
88 742
88 776
88 858
88 913
88 934
88 956
89 371
89 432
89 511
89 539
89 613
89 619
89 620
89 731
89 743
89 777
89 859
89 914
89 935
89 957
90 372
90 433
90 512
90 540
90 614
90 620
90 621
90 732
90 744
90 778
90 860
90 915
90 936
90 958
91 373
91 434
91 513
91 541
91 615
91 621
91 622
91 733
91 745
91 779
91 861
91 916
91 937
91 959
92 374
92 435
92 514
92 542
92 616
92 622
92 623
92 734
92 746
92 780
92 862
92 917
92 938
92 960
93 375
93 436
93 515
93 543
93 617
93 623
93 624
93 735
93 747
93 781
93 863
93 918
93 939
93 961
94 376
94 437
94 516
94 544
94 618
94 624
94 625
94 736
94 748
94 782
94 864
94 919
94 940
94 962
95 377
95 438
95 517
95 545
95 619
95 625
95 626
95 737
95 749
95 783
95 865
95 920
95 941
95 963
96 378
96 439
96 518
96 546
96 620
96 626
96 627
96 738
96 750
96 784
96 866
96 921
96 942
96 964
97 379
97 440
97 519
97 547
97 621
97 627
97 628
97 739
97 751
97 785
97 867
97 922
97 943
97 965
98 380
98 441
98 520
98 548
98 622
98 628
98 629
98 740
98 752
98 786
98 868
98 923
98 944
98 966
99 381
99 442
99 521
99 549
99 623
99 629
99 630
99 741
99 753
99 787
99 869
99 924
99 945
99 967
100 382
100 443
100 522
100 550
100 624
100 630
100 631
100 742
100 754
100 788
100 870
100 925
100 946
100 968
101 383
101 444
101 523
101 551
101 625
101 631
101 632
101 743
101 755
101 789
101 871
101 926
101 947
101 969
102 384
102 445
102 524
102 552
102 626
102 632
102 633
102 744
102 756
102 790
102 872
102 927
102 948
102 970
103 385
103 446
103 525
103 553
103 627
103 633
103 634
103 745
103 757
103 791
103 873
103 928
103 949
103 971
104 386
104 447
104 526
104 554
104 628
104 634
104 635
104 746
104 758
104 792
104 874
104 929
104 950
104 972
105 387
105 448
105 527
105 555
105 629
105 635
105 636
105 747
105 759
105 793
105 875
105 930
105 951
105 973
106 388
106 449
106 528
106 556
106 630
106 636
106 637
106 748
106 760
106 794
106 876
106 931
106 952
106 974
107 389
107 450
107 529
107 557
107 631
107 637
107 638
107 749
107 761
107 795
107 877
107 932
107 953
107 975
108 390
108 451
108 530
108 558
108 632
108 638
108 639
108 750
108 762
108 796
108 878
108 933
108 954
108 976
109 391
109 452
109 531
109 559
109 633
109 639
109 640
109 751
109 763
109 797
109 879
109 934
109 955
109 977
110 392
110 453
110 532
110 560
110 634
110 640
110 641
110 752
110 764
110 798
110 880
110 935
110 956
110 978
111 393
111 454
111 533
111 561
111 635
111 641
111 642
111 753
111 765
111 799
111 881
111 936
111 957
111 979
112 394
112 455
112 534
112 562
112 636
112 642
112 643
112 754
112 766
112 800
112 882
112 937
112 958
112 980
113 395
113 456
113 535
113 563
113 637
113 643
113 644
113 755
113 767
113 801
113 883
113 938
113 959
113 981
114 396
114 457
114 536
114 564
114 638
114 644
114 645
114 756
114 768
114 802
114 884
114 939
114 960
114 982
115 397
115 458
115 537
115 565
115 639
115 645
115 646
115 757
115 769
115 803
115 885
115 940
115 961
115 983
116 398
116 459
116 538
116 566
116 640
116 646
116 647
116 758
116 770
116 804
116 886
116 941
116 962
116 984
117 399
117 460
117 539
117 567
117 641
117 647
117 648
117 759
117 771
117 805
117 887
117 942
117 963
117 985
118 400
118 461
118 540
118 568
118 642
118 648
118 649
118 760
118 772
118 806
118 888
118 943
118 964
118 986
119 401
119 462
119 541
119 569
119 643
119 649
119 650
119 761
119 773
119 807
119 889
119 944
119 965
119 987
120 402
120 463
120 542
120 570
120 644
120 650
120 651
120 762
120 774
120 808
120 890
120 945
120 966
120 988
121 403
121 464
121 543
121 571
121 645
121 651
121 652
121 763
121 775
121 809
121 891
121 946
121 967
121 989
122 404
122 465
122 544
122 572
122 646
122 652
122 653
122 764
122 776
122 810
122 892
122 947
122 968
122 990
123 405
123 466
123 545
123 573
123 647
123 653
123 654
123 765
123 777
123 811
123 893
123 948
123 969
123 991
124 406
124 467
124 546
124 574
124 648
124 654
124 655
124 766
124 778
124 812
124 894
124 949
124 970
124 992
125 407
125 468
125 547
125 575
125 649
125 655
125 656
125 767
125 779
125 813
125 895
125 950
125 971
125 993
126 408
126 469
126 548
126 576
126 650
126 656
126 657
126 768
126 780
126 814
126 896
126 951
126 972
126 994
127 409
127 470
127 549
127 577
127 651
127 657
127 658
127 769
127 781
127 815
127 897
127 952
127 973
127 995
128 410
128 471
128 550
128 578
128 652
128 658
128 659
128 770
128 782
128 816
128 898
128 953
128 974
128 996
129 411
129 472
129 551
129 579
129 653
129 659
129 660
129 771
129 783
129 817
129 899
129 954
129 975
129 997
130 412
130 473
130 552
130 580
130 654
130 660
130 661
130 772
130 784
130 818
130 900
130 955
130 976
130 998
131 413
131 474
131 553
131 581
131 655
131 661
131 662
131 773
131 785
131 819
131 901
131 956
131 977
131 999
132 414
132 475
132 554
132 582
132 656
132 662
132 663
132 774
132 786
132 820
132 902
132 957
132 978
132 1000
133 415
133 476
133 555
133 583
133 657
133 663
133 664
133 775
133 787
133 821
133 903
133 958
133 979
133 1001
134 416
134 477
134 556
134 584
134 658
134 664
134 665
134 776
134 788
134 822
134 904
134 959
134 980
134 1002
135 417
135 478
135 557
135 585
135 659
135 665
135 666
135 777
135 789
135 823
135 905
135 960
135 981
135 1003
136 418
136 479
136 558
136 586
136 660
136 666
136 667
136 778
136 790
136 824
136 906
136 961
136 982
136 1004
137 419
137 480
137 559
137 587
137 661
137 667
137 668
137 670
137 779
137 791
137 825
137 907
137 962
137 983
138 420
138 481
138 560
138 588
138 662
138 668
138 669
138 671
138 780
138 792
138 826
138 908
138 963
138 984
139 335
139 421
139 482
139 561
139 589
139 663
139 669
139 672
139 781
139 793
139 827
139 909
139 964
139 985
140 335
140 336
140 422
140 483
140 562
140 590
140 664
140 673
140 782
140 794
140 828
140 910
140 965
140 986
141 336
141 337
141 423
141 484
141 563
141 591
141 665
141 674
141 783
141 795
141 829
141 911
141 966
141 987
142 337
142 338
142 424
142 485
142 564
142 592
142 666
142 675
142 784
142 796
142 830
142 912
142 967
142 988
143 338
143 339
143 425
143 486
143 565
143 593
143 667
143 676
143 785
143 797
143 831
143 913
143 968
143 989
144 339
144 340
144 426
144 487
144 566
144 594
144 668
144 677
144 786
144 798
144 832
144 914
144 969
144 990
145 340
145 341
145 427
145 488
145 567
145 595
145 669
145 678
145 787
145 799
145 833
145 915
145 970
145 991
146 335
146 341
146 342
146 428
146 489
146 568
146 596
146 679
146 788
146 800
146 834
146 916
146 971
146 992
147 336
147 342
147 343
147 429
147 490
147 569
147 597
147 680
147 789
147 801
147 835
147 917
147 972
147 993
148 337
148 343
148 344
148 430
148 491
148 570
148 598
148 681
148 790
148 802
148 836
148 918
148 973
148 994
149 338
149 344
149 345
149 431
149 492
149 571
149 599
149 682
149 791
149 803
149 837
149 919
149 974
149 995
150 339
150 345
150 346
150 432
150 493
150 572
150 600
150 683
150 792
150 804
150 838
150 920
150 975
150 996
151 340
151 346
151 347
151 433
151 494
151 573
151 601
151 684
151 793
151 805
151 839
151 921
151 976
151 997
152 341
152 347
152 348
152 434
152 495
152 574
152 602
152 685
152 794
152 806
152 840
152 922
152 977
152 998
153 342
153 348
153 349
153 435
153 496
153 575
153 603
153 686
153 795
153 807
153 841
153 923
153 978
153 999
154 343
154 349
154 350
154 436
154 497
154 576
154 604
154 687
154 796
154 808
154 842
154 924
154 979
154 1000
155 344
155 350
155 351
155 437
155 498
155 577
155 605
155 688
155 797
155 809
155 843
155 925
155 980
155 1001
156 345
156 351
156 352
156 438
156 499
156 578
156 606
156 689
156 798
156 810
156 844
156 926
156 981
156 1002
157 346
157 352
157 353
157 439
157 500
157 579
157 607
157 690
157 799
157 811
157 845
157 927
157 982
157 1003
158 347
158 353
158 354
158 440
158 501
158 580
158 608
158 691
158 800
158 812
158 846
158 928
158 983
158 1004
159 348
159 354
159 355
159 441
159 502
159 581
159 609
159 670
159 692
159 801
159 813
159 847
159 929
159 984
160 349
160 355
160 356
160 442
160 503
160 582
160 610
160 671
160 693
160 802
160 814
160 848
160 930
160 985
161 350
161 356
161 357
161 443
161 504
161 583
161 611
161 672
161 694
161 803
161 815
161 849
161 931
161 986
162 351
162 357
162 358
162 444
162 505
162 584
162 612
162 673
162 695
162 804
162 816
162 850
162 932
162 987
163 352
163 358
163 359
163 445
163 506
163 585
163 613
163 674
163 696
163 805
163 817
163 851
163 933
163 988
164 353
164 359
164 360
164 446
164 507
164 586
164 614
164 675
164 697
164 806
164 818
164 852
164 934
164 989
165 354
165 360
165 361
165 447
165 508
165 587
165 615
165 676
165 698
165 807
165 819
165 853
165 935
165 990
166 355
166 361
166 362
166 448
166 509
166 588
166 616
166 677
166 699
166 808
166 820
166 854
166 936
166 991
167 356
167 362
167 363
167 449
167 510
167 589
167 617
167 678
167 700
167 809
167 821
167 855
167 937
167 992
168 357
168 363
168 364
168 450
168 511
168 590
168 618
168 679
168 701
168 810
168 822
168 856
168 938
168 993
169 358
169 364
169 365
169 451
169 512
169 591
169 619
169 680
169 702
169 811
169 823
169 857
169 939
169 994
170 359
170 365
170 366
170 452
170 513
170 592
170 620
170 681
170 703
170 812
170 824
170 858
170 940
170 995
171 360
171 366
171 367
171 453
171 514
171 593
171 621
171 682
171 704
171 813
171 825
171 859
171 941
171 996
172 361
172 367
172 368
172 454
172 515
172 594
172 622
172 683
172 705
172 814
172 826
172 860
172 942
172 997
173 362
173 368
173 369
173 455
173 516
173 595
173 623
173 684
173 706
173 815
173 827
173 861
173 943
173 998
174 363
174 369
174 370
174 456
174 517
174 596
174 624
174 685
174 707
174 816
174 828
174 862
174 944
174 999
175 364
175 370
175 371
175 457
175 518
175 597
175 625
175 686
175 708
175 817
175 829
175 863
175 945
175 1000
176 365
176 371
176 372
176 458
176 519
176 598
176 626
176 687
176 709
176 818
176 830
176 864
176 946
176 1001
177 366
177 372
177 373
177 459
177 520
177 599
177 627
177 688
177 710
177 819
177 831
177 865
177 947
177 1002
178 367
178 373
178 374
178 460
178 521
178 600
178 628
178 689
178 711
178 820
178 832
178 866
178 948
178 1003
179 368
179 374
179 375
179 461
179 522
179 601
179 629
179 690
179 712
179 821
179 833
179 867
179 949
179 1004
180 369
180 375
180 376
180 462
180 523
180 602
180 630
180 670
180 691
180 713
180 822
180 834
180 868
180 950
181 370
181 376
181 377
181 463
181 524
181 603
181 631
181 671
181 692
181 714
181 823
181 835
181 869
181 951
182 371
182 377
182 378
182 464
182 525
182 604
182 632
182 672
182 693
182 715
182 824
182 836
182 870
182 952
183 372
183 378
183 379
183 465
183 526
183 605
183 633
183 673
183 694
183 716
183 825
183 837
183 871
183 953
184 373
184 379
184 380
184 466
184 527
184 606
184 634
184 674
184 695
184 717
184 826
184 838
184 872
184 954
185 374
185 380
185 381
185 467
185 528
185 607
185 635
185 675
185 696
185 718
185 827
185 839
185 873
185 955
186 375
186 381
186 382
186 468
186 529
186 608
186 636
186 676
186 697
186 719
186 828
186 840
186 874
186 956
187 376
187 382
187 383
187 469
187 530
187 609
187 637
187 677
187 698
187 720
187 829
187 841
187 875
187 957
188 377
188 383
188 384
188 470
188 531
188 610
188 638
188 678
188 699
188 721
188 830
188 842
188 876
188 958
189 378
189 384
189 385
189 471
189 532
189 611
189 639
189 679
189 700
189 722
189 831
189 843
189 877
189 959
190 379
190 385
190 386
190 472
190 533
190 612
190 640
190 680
190 701
190 723
190 832
190 844
190 878
190 960
191 380
191 386
191 387
191 473
191 534
191 613
191 641
191 681
191 702
191 724
191 833
191 845
191 879
191 961
192 381
192 387
192 388
192 474
192 535
192 614
192 642
192 682
192 703
192 725
192 834
192 846
192 880
192 962
193 382
193 388
193 389
193 475
193 536
193 615
193 643
193 683
193 704
193 726
193 835
193 847
193 881
193 963
194 383
194 389
194 390
194 476
194 537
194 616
194 644
194 684
194 705
194 727
194 836
194 848
194 882
194 964
195 384
195 390
195 391
195 477
195 538
195 617
195 645
195 685
195 706
195 728
195 837
195 849
195 883
195 965
196 385
196 391
196 392
196 478
196 539
196 618
196 646
196 686
196 707
196 729
196 838
196 850
196 884
196 966
197 386
197 392
197 393
197 479
197 540
197 619
197 647
197 687
197 708
197 730
197 839
197 851
197 885
197 967
198 387
198 393
198 394
198 480
198 541
198 620
198 648
198 688
198 709
198 731
198 840
198 852
198 886
198 968
199 388
199 394
199 395
199 481
199 542
199 621
199 649
199 689
199 710
199 732
199 841
199 853
199 887
199 969
200 389
200 395
200 396
200 482
200 543
200 622
200 650
200 690
200 711
200 733
200 842
200 854
200 888
200 970
201 390
201 396
201 397
201 483
201 544
201 623
201 651
201 691
201 712
201 734
201 843
201 855
201 889
201 971
202 391
202 397
202 398
202 484
202 545
202 624
202 652
202 692
202 713
202 735
202 844
202 856
202 890
202 972
203 392
203 398
203 399
203 485
203 546
203 625
203 653
203 693
203 714
203 736
203 845
203 857
203 891
203 973
204 393
204 399
204 400
204 486
204 547
204 626
204 654
204 694
204 715
204 737
204 846
204 858
204 892
204 974
205 394
205 400
205 401
205 487
205 548
205 627
205 655
205 695
205 716
205 738
205 847
205 859
205 893
205 975
206 395
206 401
206 402
206 488
206 549
206 628
206 656
206 696
206 717
206 739
206 848
206 860
206 894
206 976
207 396
207 402
207 403
207 489
207 550
207 629
207 657
207 697
207 718
207 740
207 849
207 861
207 895
207 977
208 397
208 403
208 404
208 490
208 551
208 630
208 658
208 698
208 719
208 741
208 850
208 862
208 896
208 978
209 398
209 404
209 405
209 491
209 552
209 631
209 659
209 699
209 720
209 742
209 851
209 863
209 897
209 979
210 399
210 405
210 406
210 492
210 553
210 632
210 660
210 700
210 721
210 743
210 852
210 864
210 898
210 980
211 400
211 406
211 407
211 493
211 554
211 633
211 661
211 701
211 722
211 744
211 853
211 865
211 899
211 981
212 401
212 407
212 408
212 494
212 555
212 634
212 662
212 702
212 723
212 745
212 854
212 866
212 900
212 982
213 402
213 408
213 409
213 495
213 556
213 635
213 663
213 703
213 724
213 746
213 855
213 867
213 901
213 983
214 403
214 409
214 410
214 496
214 557
214 636
214 664
214 704
214 725
214 747
214 856
214 868
214 902
214 984
215 404
215 410
215 411
215 497
215 558
215 637
215 665
215 705
215 726
215 748
215 857
215 869
215 903
215 985
216 405
216 411
216 412
216 498
216 559
216 638
216 666
216 706
216 727
216 749
216 858
216 870
216 904
216 986
217 406
217 412
217 413
217 499
217 560
217 639
217 667
217 707
217 728
217 750
217 859
217 871
217 905
217 987
218 407
218 413
218 414
218 500
218 561
218 640
218 668
218 708
218 729
218 751
218 860
218 872
218 906
218 988
219 408
219 414
219 415
219 501
219 562
219 641
219 669
219 709
219 730
219 752
219 861
219 873
219 907
219 989
220 335
220 409
220 415
220 416
220 502
220 563
220 642
220 710
220 731
220 753
220 862
220 874
220 908
220 990
221 336
221 410
221 416
221 417
221 503
221 564
221 643
221 711
221 732
221 754
221 863
221 875
221 909
221 991
222 337
222 411
222 417
222 418
222 504
222 565
222 644
222 712
222 733
222 755
222 864
222 876
222 910
222 992
223 338
223 412
223 418
223 419
223 505
223 566
223 645
223 713
223 734
223 756
223 865
223 877
223 911
223 993
224 339
224 413
224 419
224 420
224 506
224 567
224 646
224 714
224 735
224 757
224 866
224 878
224 912
224 994
225 340
225 414
225 420
225 421
225 507
225 568
225 647
225 715
225 736
225 758
225 867
225 879
225 913
225 995
226 341
226 415
226 421
226 422
226 508
226 569
226 648
226 716
226 737
226 759
226 868
226 880
226 914
226 996
227 342
227 416
227 422
227 423
227 509
227 570
227 649
227 717
227 738
227 760
227 869
227 881
227 915
227 997
228 343
228 417
228 423
228 424
228 510
228 571
228 650
228 718
228 739
228 761
228 870
228 882
228 916
228 998
229 344
229 418
229 424
229 425
229 511
229 572
229 651
229 719
229 740
229 762
229 871
229 883
229 917
229 999
230 345
230 419
230 425
230 426
230 512
230 573
230 652
230 720
230 741
230 763
230 872
230 884
230 918
230 1000
231 346
231 420
231 426
231 427
231 513
231 574
231 653
231 721
231 742
231 764
231 873
231 885
231 919
231 1001
232 347
232 421
232 427
232 428
232 514
232 575
232 654
232 722
232 743
232 765
232 874
232 886
232 920
232 1002
233 348
233 422
233 428
233 429
233 515
233 576
233 655
233 723
233 744
233 766
233 875
233 887
233 921
233 1003
234 349
234 423
234 429
234 430
234 516
234 577
234 656
234 724
234 745
234 767
234 876
234 888
234 922
234 1004
235 350
235 424
235 430
235 431
235 517
235 578
235 657
235 670
235 725
235 746
235 768
235 877
235 889
235 923
236 351
236 425
236 431
236 432
236 518
236 579
236 658
236 671
236 726
236 747
236 769
236 878
236 890
236 924
237 352
237 426
237 432
237 433
237 519
237 580
237 659
237 672
237 727
237 748
237 770
237 879
237 891
237 925
238 353
238 427
238 433
238 434
238 520
238 581
238 660
238 673
238 728
238 749
238 771
238 880
238 892
238 926
239 354
239 428
239 434
239 435
239 521
239 582
239 661
239 674
239 729
239 750
239 772
239 881
239 893
239 927
240 355
240 429
240 435
240 436
240 522
240 583
240 662
240 675
240 730
240 751
240 773
240 882
240 894
240 928
241 356
241 430
241 436
241 437
241 523
241 584
241 663
241 676
241 731
241 752
241 774
241 883
241 895
241 929
242 357
242 431
242 437
242 438
242 524
242 585
242 664
242 677
242 732
242 753
242 775
242 884
242 896
242 930
243 358
243 432
243 438
243 439
243 525
243 586
243 665
243 678
243 733
243 754
243 776
243 885
243 897
243 931
244 359
244 433
244 439
244 440
244 526
244 587
244 666
244 679
244 734
244 755
244 777
244 886
244 898
244 932
245 360
245 434
245 440
245 441
245 527
245 588
245 667
245 680
245 735
245 756
245 778
245 887
245 899
245 933
246 361
246 435
246 441
246 442
246 528
246 589
246 668
246 681
246 736
246 757
246 779
246 888
246 900
246 934
247 362
247 436
247 442
247 443
247 529
247 590
247 669
247 682
247 737
247 758
247 780
247 889
247 901
247 935
248 335
248 363
248 437
248 443
248 444
248 530
248 591
248 683
248 738
248 759
248 781
248 890
248 902
248 936
249 336
249 364
249 438
249 444
249 445
249 531
249 592
249 684
249 739
249 760
249 782
249 891
249 903
249 937
250 337
250 365
250 439
250 445
250 446
250 532
250 593
250 685
250 740
250 761
250 783
250 892
250 904
250 938
251 338
251 366
251 440
251 446
251 447
251 533
251 594
251 686
251 741
251 762
251 784
251 893
251 905
251 939
252 339
252 367
252 441
252 447
252 448
252 534
252 595
252 687
252 742
252 763
252 785
252 894
252 906
252 940
253 340
253 368
253 442
253 448
253 449
253 535
253 596
253 688
253 743
253 764
253 786
253 895
253 907
253 941
254 341
254 369
254 443
254 449
254 450
254 536
254 597
254 689
254 744
254 765
254 787
254 896
254 908
254 942
255 342
255 370
255 444
255 450
255 451
255 537
255 598
255 690
255 745
255 766
255 788
255 897
255 909
255 943
256 343
256 371
256 445
256 451
256 452
256 538
256 599
256 691
256 746
256 767
256 789
256 898
256 910
256 944
257 344
257 372
257 446
257 452
257 453
257 539
257 600
257 692
257 747
257 768
257 790
257 899
257 911
257 945
258 345
258 373
258 447
258 453
258 454
258 540
258 601
258 693
258 748
258 769
258 791
258 900
258 912
258 946
259 346
259 374
259 448
259 454
259 455
259 541
259 602
259 694
259 749
259 770
259 792
259 901
259 913
259 947
260 347
260 375
260 449
260 455
260 456
260 542
260 603
260 695
260 750
260 771
260 793
260 902
260 914
260 948
261 348
261 376
261 450
261 456
261 457
261 543
261 604
261 696
261 751
261 772
261 794
261 903
261 915
261 949
262 349
262 377
262 451
262 457
262 458
262 544
262 605
262 697
262 752
262 773
262 795
262 904
262 916
262 950
263 350
263 378
263 452
263 458
263 459
263 545
263 606
263 698
263 753
263 774
263 796
263 905
263 917
263 951
264 351
264 379
264 453
264 459
264 460
264 546
264 607
264 699
264 754
264 775
264 797
264 906
264 918
264 952
265 352
265 380
265 454
265 460
265 461
265 547
265 608
265 700
265 755
265 776
265 798
265 907
265 919
265 953
266 353
266 381
266 455
266 461
266 462
266 548
266 609
266 701
266 756
266 777
266 799
266 908
266 920
266 954
267 354
267 382
267 456
267 462
267 463
267 549
267 610
267 702
267 757
267 778
267 800
267 909
267 921
267 955
268 355
268 383
268 457
268 463
268 464
268 550
268 611
268 703
268 758
268 779
268 801
268 910
268 922
268 956
269 356
269 384
269 458
269 464
269 465
269 551
269 612
269 704
269 759
269 780
269 802
269 911
269 923
269 957
270 357
270 385
270 459
270 465
270 466
270 552
270 613
270 705
270 760
270 781
270 803
270 912
270 924
270 958
271 358
271 386
271 460
271 466
271 467
271 553
271 614
271 706
271 761
271 782
271 804
271 913
271 925
271 959
272 359
272 387
272 461
272 467
272 468
272 554
272 615
272 707
272 762
272 783
272 805
272 914
272 926
272 960
273 360
273 388
273 462
273 468
273 469
273 555
273 616
273 708
273 763
273 784
273 806
273 915
273 927
273 961
274 361
274 389
274 463
274 469
274 470
274 556
274 617
274 709
274 764
274 785
274 807
274 916
274 928
274 962
275 362
275 390
275 464
275 470
275 471
275 557
275 618
275 710
275 765
275 786
275 808
275 917
275 929
275 963
276 363
276 391
276 465
276 471
276 472
276 558
276 619
276 711
276 766
276 787
276 809
276 918
276 930
276 964
277 364
277 392
277 466
277 472
277 473
277 559
277 620
277 712
277 767
277 788
277 810
277 919
277 931
277 965
278 365
278 393
278 467
278 473
278 474
278 560
278 621
278 713
278 768
278 789
278 811
278 920
278 932
278 966
279 366
279 394
279 468
279 474
279 475
279 561
279 622
279 714
279 769
279 790
279 812
279 921
279 933
279 967
280 367
280 395
280 469
280 475
280 476
280 562
280 623
280 715
280 770
280 791
280 813
280 922
280 934
280 968
281 368
281 396
281 470
281 476
281 477
281 563
281 624
281 716
281 771
281 792
281 814
281 923
281 935
281 969
282 369
282 397
282 471
282 477
282 478
282 564
282 625
282 717
282 772
282 793
282 815
282 924
282 936
282 970
283 370
283 398
283 472
283 478
283 479
283 565
283 626
283 718
283 773
283 794
283 816
283 925
283 937
283 971
284 371
284 399
284 473
284 479
284 480
284 566
284 627
284 719
284 774
284 795
284 817
284 926
284 938
284 972
285 372
285 400
285 474
285 480
285 481
285 567
285 628
285 720
285 775
285 796
285 818
285 927
285 939
285 973
286 373
286 401
286 475
286 481
286 482
286 568
286 629
286 721
286 776
286 797
286 819
286 928
286 940
286 974
287 374
287 402
287 476
287 482
287 483
287 569
287 630
287 722
287 777
287 798
287 820
287 929
287 941
287 975
288 375
288 403
288 477
288 483
288 484
288 570
288 631
288 723
288 778
288 799
288 821
288 930
288 942
288 976
289 376
289 404
289 478
289 484
289 485
289 571
289 632
289 724
289 779
289 800
289 822
289 931
289 943
289 977
290 377
290 405
290 479
290 485
290 486
290 572
290 633
290 725
290 780
290 801
290 823
290 932
290 944
290 978
291 378
291 406
291 480
291 486
291 487
291 573
291 634
291 726
291 781
291 802
291 824
291 933
291 945
291 979
292 379
292 407
292 481
292 487
292 488
292 574
292 635
292 727
292 782
292 803
292 825
292 934
292 946
292 980
293 380
293 408
293 482
293 488
293 489
293 575
293 636
293 728
293 783
293 804
293 826
293 935
293 947
293 981
294 381
294 409
294 483
294 489
294 490
294 576
294 637
294 729
294 784
294 805
294 827
294 936
294 948
294 982
295 382
295 410
295 484
295 490
295 491
295 577
295 638
295 730
295 785
295 806
295 828
295 937
295 949
295 983
296 383
296 411
296 485
296 491
296 492
296 578
296 639
296 731
296 786
296 807
296 829
296 938
296 950
296 984
297 384
297 412
297 486
297 492
297 493
297 579
297 640
297 732
297 787
297 808
297 830
297 939
297 951
297 985
298 385
298 413
298 487
298 493
298 494
298 580
298 641
298 733
298 788
298 809
298 831
298 940
298 952
298 986
299 386
299 414
299 488
299 494
299 495
299 581
299 642
299 734
299 789
299 810
299 832
299 941
299 953
299 987
300 387
300 415
300 489
300 495
300 496
300 582
300 643
300 735
300 790
300 811
300 833
300 942
300 954
300 988
301 388
301 416
301 490
301 496
301 497
301 583
301 644
301 736
301 791
301 812
301 834
301 943
301 955
301 989
302 389
302 417
302 491
302 497
302 498
302 584
302 645
302 737
302 792
302 813
302 835
302 944
302 956
302 990
303 390
303 418
303 492
303 498
303 499
303 585
303 646
303 738
303 793
303 814
303 836
303 945
303 957
303 991
304 391
304 419
304 493
304 499
304 500
304 586
304 647
304 739
304 794
304 815
304 837
304 946
304 958
304 992
305 392
305 420
305 494
305 500
305 501
305 587
305 648
305 740
305 795
305 816
305 838
305 947
305 959
305 993
306 393
306 421
306 495
306 501
306 502
306 588
306 649
306 741
306 796
306 817
306 839
306 948
306 960
306 994
307 394
307 422
307 496
307 502
307 503
307 589
307 650
307 742
307 797
307 818
307 840
307 949
307 961
307 995
308 395
308 423
308 497
308 503
308 504
308 590
308 651
308 743
308 798
308 819
308 841
308 950
308 962
308 996
309 396
309 424
309 498
309 504
309 505
309 591
309 652
309 744
309 799
309 820
309 842
309 951
309 963
309 997
310 397
310 425
310 499
310 505
310 506
310 592
310 653
310 745
310 800
310 821
310 843
310 952
310 964
310 998
311 398
311 426
311 500
311 506
311 507
311 593
311 654
311 746
311 801
311 822
311 844
311 953
311 965
311 999
312 399
312 427
312 501
312 507
312 508
312 594
312 655
312 747
312 802
312 823
312 845
312 954
312 966
312 1000
313 400
313 428
313 502
313 508
313 509
313 595
313 656
313 748
313 803
313 824
313 846
313 955
313 967
313 1001
314 401
314 429
314 503
314 509
314 510
314 596
314 657
314 749
314 804
314 825
314 847
314 956
314 968
314 1002
315 402
315 430
315 504
315 510
315 511
315 597
315 658
315 750
315 805
315 826
315 848
315 957
315 969
315 1003
316 403
316 431
316 505
316 511
316 512
316 598
316 659
316 751
316 806
316 827
316 849
316 958
316 970
316 1004
317 404
317 432
317 506
317 512
317 513
317 599
317 660
317 670
317 752
317 807
317 828
317 850
317 959
317 971
318 405
318 433
318 507
318 513
318 514
318 600
318 661
318 671
318 753
318 808
318 829
318 851
318 960
318 972
319 406
319 434
319 508
319 514
319 515
319 601
319 662
319 672
319 754
319 809
319 830
319 852
319 961
319 973
320 407
320 435
320 509
320 515
320 516
320 602
320 663
320 673
320 755
320 810
320 831
320 853
320 962
320 974
321 408
321 436
321 510
321 516
321 517
321 603
321 664
321 674
321 756
321 811
321 832
321 854
321 963
321 975
322 409
322 437
322 511
322 517
322 518
322 604
322 665
322 675
322 757
322 812
322 833
322 855
322 964
322 976
323 410
323 438
323 512
323 518
323 519
323 605
323 666
323 676
323 758
323 813
323 834
323 856
323 965
323 977
324 411
324 439
324 513
324 519
324 520
324 606
324 667
324 677
324 759
324 814
324 835
324 857
324 966
324 978
325 412
325 440
325 514
325 520
325 521
325 607
325 668
325 678
325 760
325 815
325 836
325 858
325 967
325 979
326 413
326 441
326 515
326 521
326 522
326 608
326 669
326 679
326 761
326 816
326 837
326 859
326 968
326 980
327 335
327 414
327 442
327 516
327 522
327 523
327 609
327 680
327 762
327 817
327 838
327 860
327 969
327 981
328 336
328 415
328 443
328 517
328 523
328 524
328 610
328 681
328 763
328 818
328 839
328 861
328 970
328 982
329 337
329 416
329 444
329 518
329 524
329 525
329 611
329 682
329 764
329 819
329 840
329 862
329 971
329 983
330 338
330 417
330 445
330 519
330 525
330 526
330 612
330 683
330 765
330 820
330 841
330 863
330 972
330 984
331 339
331 418
331 446
331 520
331 526
331 527
331 613
331 684
331 766
331 821
331 842
331 864
331 973
331 985
332 340
332 419
332 447
332 521
332 527
332 528
332 614
332 685
332 767
332 822
332 843
332 865
332 974
332 986
333 341
333 420
333 448
333 522
333 528
333 529
333 615
333 686
333 768
333 823
333 844
333 866
333 975
333 987
334 342
334 421
334 449
334 523
334 529
334 530
334 616
334 687
334 769
334 824
334 845
334 867
334 976
334 988
335 724
335 726
335 768
335 942
335 965
335 982
335 990
336 725
336 727
336 769
336 943
336 966
336 983
336 991
337 726
337 728
337 770
337 944
337 967
337 984
337 992
338 727
338 729
338 771
338 945
338 968
338 985
338 993
339 728
339 730
339 772
339 946
339 969
339 986
339 994
340 729
340 731
340 773
340 947
340 970
340 987
340 995
341 730
341 732
341 774
341 948
341 971
341 988
341 996
342 731
342 733
342 775
342 949
342 972
342 989
342 997
343 732
343 734
343 776
343 950
343 973
343 990
343 998
344 733
344 735
344 777
344 951
344 974
344 991
344 999
345 734
345 736
345 778
345 952
345 975
345 992
345 1000
346 735
346 737
346 779
346 953
346 976
346 993
346 1001
347 736
347 738
347 780
347 954
347 977
347 994
347 1002
348 737
348 739
348 781
348 955
348 978
348 995
348 1003
349 738
349 740
349 782
349 956
349 979
349 996
349 1004
350 670
350 739
350 741
350 783
350 957
350 980
350 997
351 671
351 740
351 742
351 784
351 958
351 981
351 998
352 672
352 741
352 743
352 785
352 959
352 982
352 999
353 673
353 742
353 744
353 786
353 960
353 983
353 1000
354 674
354 743
354 745
354 787
354 961
354 984
354 1001
355 675
355 744
355 746
355 788
355 962
355 985
355 1002
356 676
356 745
356 747
356 789
356 963
356 986
356 1003
357 677
357 746
357 748
357 790
357 964
357 987
357 1004
358 670
358 678
358 747
358 749
358 791
358 965
358 988
359 671
359 679
359 748
359 750
359 792
359 966
359 989
360 672
360 680
360 749
360 751
360 793
360 967
360 990
361 673
361 681
361 750
361 752
361 794
361 968
361 991
362 674
362 682
362 751
362 753
362 795
362 969
362 992
363 675
363 683
363 752
363 754
363 796
363 970
363 993
364 676
364 684
364 753
364 755
364 797
364 971
364 994
365 677
365 685
365 754
365 756
365 798
365 972
365 995
366 678
366 686
366 755
366 757
366 799
366 973
366 996
367 679
367 687
367 756
367 758
367 800
367 974
367 997
368 680
368 688
368 757
368 759
368 801
368 975
368 998
369 681
369 689
369 758
369 760
369 802
369 976
369 999
370 682
370 690
370 759
370 761
370 803
370 977
370 1000
371 683
371 691
371 760
371 762
371 804
371 978
371 1001
372 684
372 692
372 761
372 763
372 805
372 979
372 1002
373 685
373 693
373 762
373 764
373 806
373 980
373 1003
374 686
374 694
374 763
374 765
374 807
374 981
374 1004
375 670
375 687
375 695
375 764
375 766
375 808
375 982
376 671
376 688
376 696
376 765
376 767
376 809
376 983
377 672
377 689
377 697
377 766
377 768
377 810
377 984
378 673
378 690
378 698
378 767
378 769
378 811
378 985
379 674
379 691
379 699
379 768
379 770
379 812
379 986
380 675
380 692
380 700
380 769
380 771
380 813
380 987
381 676
381 693
381 701
381 770
381 772
381 814
381 988
382 677
382 694
382 702
382 771
382 773
382 815
382 989
383 678
383 695
383 703
383 772
383 774
383 816
383 990
384 679
384 696
384 704
384 773
384 775
384 817
384 991
385 680
385 697
385 705
385 774
385 776
385 818
385 992
386 681
386 698
386 706
386 775
386 777
386 819
386 993
387 682
387 699
387 707
387 776
387 778
387 820
387 994
388 683
388 700
388 708
388 777
388 779
388 821
388 995
389 684
389 701
389 709
389 778
389 780
389 822
389 996
390 685
390 702
390 710
390 779
390 781
390 823
390 997
391 686
391 703
391 711
391 780
391 782
391 824
391 998
392 687
392 704
392 712
392 781
392 783
392 825
392 999
393 688
393 705
393 713
393 782
393 784
393 826
393 1000
394 689
394 706
394 714
394 783
394 785
394 827
394 1001
395 690
395 707
395 715
395 784
395 786
395 828
395 1002
396 691
396 708
396 716
396 785
396 787
396 829
396 1003
397 692
397 709
397 717
397 786
397 788
397 830
397 1004
398 670
398 693
398 710
398 718
398 787
398 789
398 831
399 671
399 694
399 711
399 719
399 788
399 790
399 832
400 672
400 695
400 712
400 720
400 789
400 791
400 833
401 673
401 696
401 713
401 721
401 790
401 792
401 834
402 674
402 697
402 714
402 722
402 791
402 793
402 835
403 675
403 698
403 715
403 723
403 792
403 794
403 836
404 676
404 699
404 716
404 724
404 793
404 795
404 837
405 677
405 700
405 717
405 725
405 794
405 796
405 838
406 678
406 701
406 718
406 726
406 795
406 797
406 839
407 679
407 702
407 719
407 727
407 796
407 798
407 840
408 680
408 703
408 720
408 728
408 797
408 799
408 841
409 681
409 704
409 721
409 729
409 798
409 800
409 842
410 682
410 705
410 722
410 730
410 799
410 801
410 843
411 683
411 706
411 723
411 731
411 800
411 802
411 844
412 684
412 707
412 724
412 732
412 801
412 803
412 845
413 685
413 708
413 725
413 733
413 802
413 804
413 846
414 686
414 709
414 726
414 734
414 803
414 805
414 847
415 687
415 710
415 727
415 735
415 804
415 806
415 848
416 688
416 711
416 728
416 736
416 805
416 807
416 849
417 689
417 712
417 729
417 737
417 806
417 808
417 850
418 690
418 713
418 730
418 738
418 807
418 809
418 851
419 691
419 714
419 731
419 739
419 808
419 810
419 852
420 692
420 715
420 732
420 740
420 809
420 811
420 853
421 693
421 716
421 733
421 741
421 810
421 812
421 854
422 694
422 717
422 734
422 742
422 811
422 813
422 855
423 695
423 718
423 735
423 743
423 812
423 814
423 856
424 696
424 719
424 736
424 744
424 813
424 815
424 857
425 697
425 720
425 737
425 745
425 814
425 816
425 858
426 698
426 721
426 738
426 746
426 815
426 817
426 859
427 699
427 722
427 739
427 747
427 816
427 818
427 860
428 700
428 723
428 740
428 748
428 817
428 819
428 861
429 701
429 724
429 741
429 749
429 818
429 820
429 862
430 702
430 725
430 742
430 750
430 819
430 821
430 863
431 703
431 726
431 743
431 751
431 820
431 822
431 864
432 704
432 727
432 744
432 752
432 821
432 823
432 865
433 705
433 728
433 745
433 753
433 822
433 824
433 866
434 706
434 729
434 746
434 754
434 823
434 825
434 867
435 707
435 730
435 747
435 755
435 824
435 826
435 868
436 708
436 731
436 748
436 756
436 825
436 827
436 869
437 709
437 732
437 749
437 757
437 826
437 828
437 870
438 710
438 733
438 750
438 758
438 827
438 829
438 871
439 711
439 734
439 751
439 759
439 828
439 830
439 872
440 712
440 735
440 752
440 760
440 829
440 831
440 873
441 713
441 736
441 753
441 761
441 830
441 832
441 874
442 714
442 737
442 754
442 762
442 831
442 833
442 875
443 715
443 738
443 755
443 763
443 832
443 834
443 876
444 716
444 739
444 756
444 764
444 833
444 835
444 877
445 717
445 740
445 757
445 765
445 834
445 836
445 878
446 718
446 741
446 758
446 766
446 835
446 837
446 879
447 719
447 742
447 759
447 767
447 836
447 838
447 880
448 720
448 743
448 760
448 768
448 837
448 839
448 881
449 721
449 744
449 761
449 769
449 838
449 840
449 882
450 722
450 745
450 762
450 770
450 839
450 841
450 883
451 723
451 746
451 763
451 771
451 840
451 842
451 884
452 724
452 747
452 764
452 772
452 841
452 843
452 885
453 725
453 748
453 765
453 773
453 842
453 844
453 886
454 726
454 749
454 766
454 774
454 843
454 845
454 887
455 727
455 750
455 767
455 775
455 844
455 846
455 888
456 728
456 751
456 768
456 776
456 845
456 847
456 889
457 729
457 752
457 769
457 777
457 846
457 848
457 890
458 730
458 753
458 770
458 778
458 847
458 849
458 891
459 731
459 754
459 771
459 779
459 848
459 850
459 892
460 732
460 755
460 772
460 780
460 849
460 851
460 893
461 733
461 756
461 773
461 781
461 850
461 852
461 894
462 734
462 757
462 774
462 782
462 851
462 853
462 895
463 735
463 758
463 775
463 783
463 852
463 854
463 896
464 736
464 759
464 776
464 784
464 853
464 855
464 897
465 737
465 760
465 777
465 785
465 854
465 856
465 898
466 738
466 761
466 778
466 786
466 855
466 857
466 899
467 739
467 762
467 779
467 787
467 856
467 858
467 900
468 740
468 763
468 780
468 788
468 857
468 859
468 901
469 741
469 764
469 781
469 789
469 858
469 860
469 902
470 742
470 765
470 782
470 790
470 859
470 861
470 903
471 743
471 766
471 783
471 791
471 860
471 862
471 904
472 744
472 767
472 784
472 792
472 861
472 863
472 905
473 745
473 768
473 785
473 793
473 862
473 864
473 906
474 746
474 769
474 786
474 794
474 863
474 865
474 907
475 747
475 770
475 787
475 795
475 864
475 866
475 908
476 748
476 771
476 788
476 796
476 865
476 867
476 909
477 749
477 772
477 789
477 797
477 866
477 868
477 910
478 750
478 773
478 790
478 798
478 867
478 869
478 911
479 751
479 774
479 791
479 799
479 868
479 870
479 912
480 752
480 775
480 792
480 800
480 869
480 871
480 913
481 753
481 776
481 793
481 801
481 870
481 872
481 914
482 754
482 777
482 794
482 802
482 871
482 873
482 915
483 755
483 778
483 795
483 803
483 872
483 874
483 916
484 756
484 779
484 796
484 804
484 873
484 875
484 917
485 757
485 780
485 797
485 805
485 874
485 876
485 918
486 758
486 781
486 798
486 806
486 875
486 877
486 919
487 759
487 782
487 799
487 807
487 876
487 878
487 920
488 760
488 783
488 800
488 808
488 877
488 879
488 921
489 761
489 784
489 801
489 809
489 878
489 880
489 922
490 762
490 785
490 802
490 810
490 879
490 881
490 923
491 763
491 786
491 803
491 811
491 880
491 882
491 924
492 764
492 787
492 804
492 812
492 881
492 883
492 925
493 765
493 788
493 805
493 813
493 882
493 884
493 926
494 766
494 789
494 806
494 814
494 883
494 885
494 927
495 767
495 790
495 807
495 815
495 884
495 886
495 928
496 768
496 791
496 808
496 816
496 885
496 887
496 929
497 769
497 792
497 809
497 817
497 886
497 888
497 930
498 770
498 793
498 810
498 818
498 887
498 889
498 931
499 771
499 794
499 811
499 819
499 888
499 890
499 932
500 772
500 795
500 812
500 820
500 889
500 891
500 933
501 773
501 796
501 813
501 821
501 890
501 892
501 934
502 774
502 797
502 814
502 822
502 891
502 893
502 935
503 775
503 798
503 815
503 823
503 892
503 894
503 936
504 776
504 799
504 816
504 824
504 893
504 895
504 937
505 777
505 800
505 817
505 825
505 894
505 896
505 938
506 778
506 801
506 818
506 826
506 895
506 897
506 939
507 779
507 802
507 819
507 827
507 896
507 898
507 940
508 780
508 803
508 820
508 828
508 897
508 899
508 941
509 781
509 804
509 821
509 829
509 898
509 900
509 942
510 782
510 805
510 822
510 830
510 899
510 901
510 943
511 783
511 806
511 823
511 831
511 900
511 902
511 944
512 784
512 807
512 824
512 832
512 901
512 903
512 945
513 785
513 808
513 825
513 833
513 902
513 904
513 946
514 786
514 809
514 826
514 834
514 903
514 905
514 947
515 787
515 810
515 827
515 835
515 904
515 906
515 948
516 788
516 811
516 828
516 836
516 905
516 907
516 949
517 789
517 812
517 829
517 837
517 906
517 908
517 950
518 790
518 813
518 830
518 838
518 907
518 909
518 951
519 791
519 814
519 831
519 839
519 908
519 910
519 952
520 792
520 815
520 832
520 840
520 909
520 911
520 953
521 793
521 816
521 833
521 841
521 910
521 912
521 954
522 794
522 817
522 834
522 842
522 911
522 913
522 955
523 795
523 818
523 835
523 843
523 912
523 914
523 956
524 796
524 819
524 836
524 844
524 913
524 915
524 957
525 797
525 820
525 837
525 845
525 914
525 916
525 958
526 798
526 821
526 838
526 846
526 915
526 917
526 959
527 799
527 822
527 839
527 847
527 916
527 918
527 960
528 800
528 823
528 840
528 848
528 917
528 919
528 961
529 801
529 824
529 841
529 849
529 918
529 920
529 962
530 802
530 825
530 842
530 850
530 919
530 921
530 963
531 803
531 826
531 843
531 851
531 920
531 922
531 964
532 804
532 827
532 844
532 852
532 921
532 923
532 965
533 805
533 828
533 845
533 853
533 922
533 924
533 966
534 806
534 829
534 846
534 854
534 923
534 925
534 967
535 807
535 830
535 847
535 855
535 924
535 926
535 968
536 808
536 831
536 848
536 856
536 925
536 927
536 969
537 809
537 832
537 849
537 857
537 926
537 928
537 970
538 810
538 833
538 850
538 858
538 927
538 929
538 971
539 811
539 834
539 851
539 859
539 928
539 930
539 972
540 812
540 835
540 852
540 860
540 929
540 931
540 973
541 813
541 836
541 853
541 861
541 930
541 932
541 974
542 814
542 837
542 854
542 862
542 931
542 933
542 975
543 815
543 838
543 855
543 863
543 932
543 934
543 976
544 816
544 839
544 856
544 864
544 933
544 935
544 977
545 817
545 840
545 857
545 865
545 934
545 936
545 978
546 818
546 841
546 858
546 866
546 935
546 937
546 979
547 819
547 842
547 859
547 867
547 936
547 938
547 980
548 820
548 843
548 860
548 868
548 937
548 939
548 981
549 821
549 844
549 861
549 869
549 938
549 940
549 982
550 822
550 845
550 862
550 870
550 939
550 941
550 983
551 823
551 846
551 863
551 871
551 940
551 942
551 984
552 824
552 847
552 864
552 872
552 941
552 943
552 985
553 825
553 848
553 865
553 873
553 942
553 944
553 986
554 826
554 849
554 866
554 874
554 943
554 945
554 987
555 827
555 850
555 867
555 875
555 944
555 946
555 988
556 828
556 851
556 868
556 876
556 945
556 947
556 989
557 829
557 852
557 869
557 877
557 946
557 948
557 990
558 830
558 853
558 870
558 878
558 947
558 949
558 991
559 831
559 854
559 871
559 879
559 948
559 950
559 992
560 832
560 855
560 872
560 880
560 949
560 951
560 993
561 833
561 856
561 873
561 881
561 950
561 952
561 994
562 834
562 857
562 874
562 882
562 951
562 953
562 995
563 835
563 858
563 875
563 883
563 952
563 954
563 996
564 836
564 859
564 876
564 884
564 953
564 955
564 997
565 837
565 860
565 877
565 885
565 954
565 956
565 998
566 838
566 861
566 878
566 886
566 955
566 957
566 999
567 839
567 862
567 879
567 887
567 956
567 958
567 1000
568 840
568 863
568 880
568 888
568 957
568 959
568 1001
569 841
569 864
569 881
569 889
569 958
569 960
569 1002
570 842
570 865
570 882
570 890
570 959
570 961
570 1003
571 843
571 866
571 883
571 891
571 960
571 962
571 1004
572 670
572 844
572 867
572 884
572 892
572 961
572 963
573 671
573 845
573 868
573 885
573 893
573 962
573 964
574 672
574 846
574 869
574 886
574 894
574 963
574 965
575 673
575 847
575 870
575 887
575 895
575 964
575 966
576 674
576 848
576 871
576 888
576 896
576 965
576 967
577 675
577 849
577 872
577 889
577 897
577 966
577 968
578 676
578 850
578 873
578 890
578 898
578 967
578 969
579 677
579 851
579 874
579 891
579 899
579 968
579 970
580 678
580 852
580 875
580 892
580 900
580 969
580 971
581 679
581 853
581 876
581 893
581 901
581 970
581 972
582 680
582 854
582 877
582 894
582 902
582 971
582 973
583 681
583 855
583 878
583 895
583 903
583 972
583 974
584 682
584 856
584 879
584 896
584 904
584 973
584 975
585 683
585 857
585 880
585 897
585 905
585 974
585 976
586 684
586 858
586 881
586 898
586 906
586 975
586 977
587 685
587 859
587 882
587 899
587 907
587 976
587 978
588 686
588 860
588 883
588 900
588 908
588 977
588 979
589 687
589 861
589 884
589 901
589 909
589 978
589 980
590 688
590 862
590 885
590 902
590 910
590 979
590 981
591 689
591 863
591 886
591 903
591 911
591 980
591 982
592 690
592 864
592 887
592 904
592 912
592 981
592 983
593 691
593 865
593 888
593 905
593 913
593 982
593 984
594 692
594 866
594 889
594 906
594 914
594 983
594 985
595 693
595 867
595 890
595 907
595 915
595 984
595 986
596 694
596 868
596 891
596 908
596 916
596 985
596 987
597 695
597 869
597 892
597 909
597 917
597 986
597 988
598 696
598 870
598 893
598 910
598 918
598 987
598 989
599 697
599 871
599 894
599 911
599 919
599 988
599 990
600 698
600 872
600 895
600 912
600 920
600 989
600 991
601 699
601 873
601 896
601 913
601 921
601 990
601 992
602 700
602 874
602 897
602 914
602 922
602 991
602 993
603 701
603 875
603 898
603 915
603 923
603 992
603 994
604 702
604 876
604 899
604 916
604 924
604 993
604 995
605 703
605 877
605 900
605 917
605 925
605 994
605 996
606 704
606 878
606 901
606 918
606 926
606 995
606 997
607 705
607 879
607 902
607 919
607 927
607 996
607 998
608 706
608 880
608 903
608 920
608 928
608 997
608 999
609 707
609 881
609 904
609 921
609 929
609 998
609 1000
610 708
610 882
610 905
610 922
610 930
610 999
610 1001
611 709
611 883
611 906
611 923
611 931
611 1000
611 1002
612 710
612 884
612 907
612 924
612 932
612 1001
612 1003
613 711
613 885
613 908
613 925
613 933
613 1002
613 1004
614 670
614 712
614 886
614 909
614 926
614 934
614 1003
615 671
615 713
615 887
615 910
615 927
615 935
615 1004
616 670
616 672
616 714
616 888
616 911
616 928
616 936
617 671
617 673
617 715
617 889
617 912
617 929
617 937
618 672
618 674
618 716
618 890
618 913
618 930
618 938
619 673
619 675
619 717
619 891
619 914
619 931
619 939
620 674
620 676
620 718
620 892
620 915
620 932
620 940
621 675
621 677
621 719
621 893
621 916
621 933
621 941
622 676
622 678
622 720
622 894
622 917
622 934
622 942
623 677
623 679
623 721
623 895
623 918
623 935
623 943
624 678
624 680
624 722
624 896
624 919
624 936
624 944
625 679
625 681
625 723
625 897
625 920
625 937
625 945
626 680
626 682
626 724
626 898
626 921
626 938
626 946
627 681
627 683
627 725
627 899
627 922
627 939
627 947
628 682
628 684
628 726
628 900
628 923
628 940
628 948
629 683
629 685
629 727
629 901
629 924
629 941
629 949
630 684
630 686
630 728
630 902
630 925
630 942
630 950
631 685
631 687
631 729
631 903
631 926
631 943
631 951
632 686
632 688
632 730
632 904
632 927
632 944
632 952
633 687
633 689
633 731
633 905
633 928
633 945
633 953
634 688
634 690
634 732
634 906
634 929
634 946
634 954
635 689
635 691
635 733
635 907
635 930
635 947
635 955
636 690
636 692
636 734
636 908
636 931
636 948
636 956
637 691
637 693
637 735
637 909
637 932
637 949
637 957
638 692
638 694
638 736
638 910
638 933
638 950
638 958
639 693
639 695
639 737
639 911
639 934
639 951
639 959
640 694
640 696
640 738
640 912
640 935
640 952
640 960
641 695
641 697
641 739
641 913
641 936
641 953
641 961
642 696
642 698
642 740
642 914
642 937
642 954
642 962
643 697
643 699
643 741
643 915
643 938
643 955
643 963
644 698
644 700
644 742
644 916
644 939
644 956
644 964
645 699
645 701
645 743
645 917
645 940
645 957
645 965
646 700
646 702
646 744
646 918
646 941
646 958
646 966
647 701
647 703
647 745
647 919
647 942
647 959
647 967
648 702
648 704
648 746
648 920
648 943
648 960
648 968
649 703
649 705
649 747
649 921
649 944
649 961
649 969
650 704
650 706
650 748
650 922
650 945
650 962
650 970
651 705
651 707
651 749
651 923
651 946
651 963
651 971
652 706
652 708
652 750
652 924
652 947
652 964
652 972
653 707
653 709
653 751
653 925
653 948
653 965
653 973
654 708
654 710
654 752
654 926
654 949
654 966
654 974
655 709
655 711
655 753
655 927
655 950
655 967
655 975
656 710
656 712
656 754
656 928
656 951
656 968
656 976
657 711
657 713
657 755
657 929
657 952
657 969
657 977
658 712
658 714
658 756
658 930
658 953
658 970
658 978
659 713
659 715
659 757
659 931
659 954
659 971
659 979
660 714
660 716
660 758
660 932
660 955
660 972
660 980
661 715
661 717
661 759
661 933
661 956
661 973
661 981
662 716
662 718
662 760
662 934
662 957
662 974
662 982
663 717
663 719
663 761
663 935
663 958
663 975
663 983
664 718
664 720
664 762
664 936
664 959
664 976
664 984
665 719
665 721
665 763
665 937
665 960
665 977
665 985
666 720
666 722
666 764
666 938
666 961
666 978
666 986
667 721
667 723
667 765
667 939
667 962
667 979
667 987
668 722
668 724
668 766
668 940
668 963
668 980
668 988
669 723
669 725
669 767
669 941
669 964
669 981
669 989
