# Cayley graph of Z_333 rtimes_100 Z_3, degree 14, target diameter 3
# element (i,j) <-> index j*333+i ; connection set S = [337, 959, 653, 796, 412, 875, 599, 670, 438, 948, 407, 925, 602, 973]
N 999
0 337
0 407
0 412
0 438
0 599
0 602
0 653
0 670
0 796
0 875
0 925
0 948
0 959
0 973
1 338
1 408
1 413
1 439
1 600
1 603
1 654
1 671
1 797
1 876
1 926
1 949
1 960
1 974
2 339
2 409
2 414
2 440
2 601
2 604
2 655
2 672
2 798
2 877
2 927
2 950
2 961
2 975
3 340
3 410
3 415
3 441
3 602
3 605
3 656
3 673
3 799
3 878
3 928
3 951
3 962
3 976
4 341
4 411
4 416
4 442
4 603
4 606
4 657
4 674
4 800
4 879
4 929
4 952
4 963
4 977
5 342
5 412
5 417
5 443
5 604
5 607
5 658
5 675
5 801
5 880
5 930
5 953
5 964
5 978
6 343
6 413
6 418
6 444
6 605
6 608
6 659
6 676
6 802
6 881
6 931
6 954
6 965
6 979
7 344
7 414
7 419
7 445
7 606
7 609
7 660
7 677
7 803
7 882
7 932
7 955
7 966
7 980
8 345
8 415
8 420
8 446
8 607
8 610
8 661
8 678
8 804
8 883
8 933
8 956
8 967
8 981
9 346
9 416
9 421
9 447
9 608
9 611
9 662
9 679
9 805
9 884
9 934
9 957
9 968
9 982
10 347
10 417
10 422
10 448
10 609
10 612
10 663
10 680
10 806
10 885
10 935
10 958
10 969
10 983
11 348
11 418
11 423
11 449
11 610
11 613
11 664
11 681
11 807
11 886
11 936
11 959
11 970
11 984
12 349
12 419
12 424
12 450
12 611
12 614
12 665
12 682
12 808
12 887
12 937
12 960
12 971
12 985
13 333
13 350
13 420
13 425
13 451
13 612
13 615
13 683
13 809
13 888
13 938
13 961
13 972
13 986
14 334
14 351
14 421
14 426
14 452
14 613
14 616
14 684
14 810
14 889
14 939
14 962
14 973
14 987
15 335
15 352
15 422
15 427
15 453
15 614
15 617
15 685
15 811
15 890
15 940
15 963
15 974
15 988
16 336
16 353
16 423
16 428
16 454
16 615
16 618
16 686
16 812
16 891
16 941
16 964
16 975
16 989
17 337
17 354
17 424
17 429
17 455
17 616
17 619
17 687
17 813
17 892
17 942
17 965
17 976
17 990
18 338
18 355
18 425
18 430
18 456
18 617
18 620
18 688
18 814
18 893
18 943
18 966
18 977
18 991
19 339
19 356
19 426
19 431
19 457
19 618
19 621
19 689
19 815
19 894
19 944
19 967
19 978
19 992
20 340
20 357
20 427
20 432
20 458
20 619
20 622
20 690
20 816
20 895
20 945
20 968
20 979
20 993
21 341
21 358
21 428
21 433
21 459
21 620
21 623
21 691
21 817
21 896
21 946
21 969
21 980
21 994
22 342
22 359
22 429
22 434
22 460
22 621
22 624
22 692
22 818
22 897
22 947
22 970
22 981
22 995
23 343
23 360
23 430
23 435
23 461
23 622
23 625
23 693
23 819
23 898
23 948
23 971
23 982
23 996
24 344
24 361
24 431
24 436
24 462
24 623
24 626
24 694
24 820
24 899
24 949
24 972
24 983
24 997
25 345
25 362
25 432
25 437
25 463
25 624
25 627
25 695
25 821
25 900
25 950
25 973
25 984
25 998
26 346
26 363
26 433
26 438
26 464
26 625
26 628
26 666
26 696
26 822
26 901
26 951
26 974
26 985
27 347
27 364
27 434
27 439
27 465
27 626
27 629
27 667
27 697
27 823
27 902
27 952
27 975
27 986
28 348
28 365
28 435
28 440
28 466
28 627
28 630
28 668
28 698
28 824
28 903
28 953
28 976
28 987
29 349
29 366
29 436
29 441
29 467
29 628
29 631
29 669
29 699
29 825
29 904
29 954
29 977
29 988
30 350
30 367
30 437
30 442
30 468
30 629
30 632
30 670
30 700
30 826
30 905
30 955
30 978
30 989
31 351
31 368
31 438
31 443
31 469
31 630
31 633
31 671
31 701
31 827
31 906
31 956
31 979
31 990
32 352
32 369
32 439
32 444
32 470
32 631
32 634
32 672
32 702
32 828
32 907
32 957
32 980
32 991
33 353
33 370
33 440
33 445
33 471
33 632
33 635
33 673
33 703
33 829
33 908
33 958
33 981
33 992
34 354
34 371
34 441
34 446
34 472
34 633
34 636
34 674
34 704
34 830
34 909
34 959
34 982
34 993
35 355
35 372
35 442
35 447
35 473
35 634
35 637
35 675
35 705
35 831
35 910
35 960
35 983
35 994
36 356
36 373
36 443
36 448
36 474
36 635
36 638
36 676
36 706
36 832
36 911
36 961
36 984
36 995
37 357
37 374
37 444
37 449
37 475
37 636
37 639
37 677
37 707
37 833
37 912
37 962
37 985
37 996
38 358
38 375
38 445
38 450
38 476
38 637
38 640
38 678
38 708
38 834
38 913
38 963
38 986
38 997
39 359
39 376
39 446
39 451
39 477
39 638
39 641
39 679
39 709
39 835
39 914
39 964
39 987
39 998
40 360
40 377
40 447
40 452
40 478
40 639
40 642
40 666
40 680
40 710
40 836
40 915
40 965
40 988
41 361
41 378
41 448
41 453
41 479
41 640
41 643
41 667
41 681
41 711
41 837
41 916
41 966
41 989
42 362
42 379
42 449
42 454
42 480
42 641
42 644
42 668
42 682
42 712
42 838
42 917
42 967
42 990
43 363
43 380
43 450
43 455
43 481
43 642
43 645
43 669
43 683
43 713
43 839
43 918
43 968
43 991
44 364
44 381
44 451
44 456
44 482
44 643
44 646
44 670
44 684
44 714
44 840
44 919
44 969
44 992
45 365
45 382
45 452
45 457
45 483
45 644
45 647
45 671
45 685
45 715
45 841
45 920
45 970
45 993
46 366
46 383
46 453
46 458
46 484
46 645
46 648
46 672
46 686
46 716
46 842
46 921
46 971
46 994
47 367
47 384
47 454
47 459
47 485
47 646
47 649
47 673
47 687
47 717
47 843
47 922
47 972
47 995
48 368
48 385
48 455
48 460
48 486
48 647
48 650
48 674
48 688
48 718
48 844
48 923
48 973
48 996
49 369
49 386
49 456
49 461
49 487
49 648
49 651
49 675
49 689
49 719
49 845
49 924
49 974
49 997
50 370
50 387
50 457
50 462
50 488
50 649
50 652
50 676
50 690
50 720
50 846
50 925
50 975
50 998
51 371
51 388
51 458
51 463
51 489
51 650
51 653
51 666
51 677
51 691
51 721
51 847
51 926
51 976
52 372
52 389
52 459
52 464
52 490
52 651
52 654
52 667
52 678
52 692
52 722
52 848
52 927
52 977
53 373
53 390
53 460
53 465
53 491
53 652
53 655
53 668
53 679
53 693
53 723
53 849
53 928
53 978
54 374
54 391
54 461
54 466
54 492
54 653
54 656
54 669
54 680
54 694
54 724
54 850
54 929
54 979
55 375
55 392
55 462
55 467
55 493
55 654
55 657
55 670
55 681
55 695
55 725
55 851
55 930
55 980
56 376
56 393
56 463
56 468
56 494
56 655
56 658
56 671
56 682
56 696
56 726
56 852
56 931
56 981
57 377
57 394
57 464
57 469
57 495
57 656
57 659
57 672
57 683
57 697
57 727
57 853
57 932
57 982
58 378
58 395
58 465
58 470
58 496
58 657
58 660
58 673
58 684
58 698
58 728
58 854
58 933
58 983
59 379
59 396
59 466
59 471
59 497
59 658
59 661
59 674
59 685
59 699
59 729
59 855
59 934
59 984
60 380
60 397
60 467
60 472
60 498
60 659
60 662
60 675
60 686
60 700
60 730
60 856
60 935
60 985
61 381
61 398
61 468
61 473
61 499
61 660
61 663
61 676
61 687
61 701
61 731
61 857
61 936
61 986
62 382
62 399
62 469
62 474
62 500
62 661
62 664
62 677
62 688
62 702
62 732
62 858
62 937
62 987
63 383
63 400
63 470
63 475
63 501
63 662
63 665
63 678
63 689
63 703
63 733
63 859
63 938
63 988
64 333
64 384
64 401
64 471
64 476
64 502
64 663
64 679
64 690
64 704
64 734
64 860
64 939
64 989
65 334
65 385
65 402
65 472
65 477
65 503
65 664
65 680
65 691
65 705
65 735
65 861
65 940
65 990
66 335
66 386
66 403
66 473
66 478
66 504
66 665
66 681
66 692
66 706
66 736
66 862
66 941
66 991
67 333
67 336
67 387
67 404
67 474
67 479
67 505
67 682
67 693
67 707
67 737
67 863
67 942
67 992
68 334
68 337
68 388
68 405
68 475
68 480
68 506
68 683
68 694
68 708
68 738
68 864
68 943
68 993
69 335
69 338
69 389
69 406
69 476
69 481
69 507
69 684
69 695
69 709
69 739
69 865
69 944
69 994
70 336
70 339
70 390
70 407
70 477
70 482
70 508
70 685
70 696
70 710
70 740
70 866
70 945
70 995
71 337
71 340
71 391
71 408
71 478
71 483
71 509
71 686
71 697
71 711
71 741
71 867
71 946
71 996
72 338
72 341
72 392
72 409
72 479
72 484
72 510
72 687
72 698
72 712
72 742
72 868
72 947
72 997
73 339
73 342
73 393
73 410
73 480
73 485
73 511
73 688
73 699
73 713
73 743
73 869
73 948
73 998
74 340
74 343
74 394
74 411
74 481
74 486
74 512
74 666
74 689
74 700
74 714
74 744
74 870
74 949
75 341
75 344
75 395
75 412
75 482
75 487
75 513
75 667
75 690
75 701
75 715
75 745
75 871
75 950
76 342
76 345
76 396
76 413
76 483
76 488
76 514
76 668
76 691
76 702
76 716
76 746
76 872
76 951
77 343
77 346
77 397
77 414
77 484
77 489
77 515
77 669
77 692
77 703
77 717
77 747
77 873
77 952
78 344
78 347
78 398
78 415
78 485
78 490
78 516
78 670
78 693
78 704
78 718
78 748
78 874
78 953
79 345
79 348
79 399
79 416
79 486
79 491
79 517
79 671
79 694
79 705
79 719
79 749
79 875
79 954
80 346
80 349
80 400
80 417
80 487
80 492
80 518
80 672
80 695
80 706
80 720
80 750
80 876
80 955
81 347
81 350
81 401
81 418
81 488
81 493
81 519
81 673
81 696
81 707
81 721
81 751
81 877
81 956
82 348
82 351
82 402
82 419
82 489
82 494
82 520
82 674
82 697
82 708
82 722
82 752
82 878
82 957
83 349
83 352
83 403
83 420
83 490
83 495
83 521
83 675
83 698
83 709
83 723
83 753
83 879
83 958
84 350
84 353
84 404
84 421
84 491
84 496
84 522
84 676
84 699
84 710
84 724
84 754
84 880
84 959
85 351
85 354
85 405
85 422
85 492
85 497
85 523
85 677
85 700
85 711
85 725
85 755
85 881
85 960
86 352
86 355
86 406
86 423
86 493
86 498
86 524
86 678
86 701
86 712
86 726
86 756
86 882
86 961
87 353
87 356
87 407
87 424
87 494
87 499
87 525
87 679
87 702
87 713
87 727
87 757
87 883
87 962
88 354
88 357
88 408
88 425
88 495
88 500
88 526
88 680
88 703
88 714
88 728
88 758
88 884
88 963
89 355
89 358
89 409
89 426
89 496
89 501
89 527
89 681
89 704
89 715
89 729
89 759
89 885
89 964
90 356
90 359
90 410
90 427
90 497
90 502
90 528
90 682
90 705
90 716
90 730
90 760
90 886
90 965
91 357
91 360
91 411
91 428
91 498
91 503
91 529
91 683
91 706
91 717
91 731
91 761
91 887
91 966
92 358
92 361
92 412
92 429
92 499
92 504
92 530
92 684
92 707
92 718
92 732
92 762
92 888
92 967
93 359
93 362
93 413
93 430
93 500
93 505
93 531
93 685
93 708
93 719
93 733
93 763
93 889
93 968
94 360
94 363
94 414
94 431
94 501
94 506
94 532
94 686
94 709
94 720
94 734
94 764
94 890
94 969
95 361
95 364
95 415
95 432
95 502
95 507
95 533
95 687
95 710
95 721
95 735
95 765
95 891
95 970
96 362
96 365
96 416
96 433
96 503
96 508
96 534
96 688
96 711
96 722
96 736
96 766
96 892
96 971
97 363
97 366
97 417
97 434
97 504
97 509
97 535
97 689
97 712
97 723
97 737
97 767
97 893
97 972
98 364
98 367
98 418
98 435
98 505
98 510
98 536
98 690
98 713
98 724
98 738
98 768
98 894
98 973
99 365
99 368
99 419
99 436
99 506
99 511
99 537
99 691
99 714
99 725
99 739
99 769
99 895
99 974
100 366
100 369
100 420
100 437
100 507
100 512
100 538
100 692
100 715
100 726
100 740
100 770
100 896
100 975
101 367
101 370
101 421
101 438
101 508
101 513
101 539
101 693
101 716
101 727
101 741
101 771
101 897
101 976
102 368
102 371
102 422
102 439
102 509
102 514
102 540
102 694
102 717
102 728
102 742
102 772
102 898
102 977
103 369
103 372
103 423
103 440
103 510
103 515
103 541
103 695
103 718
103 729
103 743
103 773
103 899
103 978
104 370
104 373
104 424
104 441
104 511
104 516
104 542
104 696
104 719
104 730
104 744
104 774
104 900
104 979
105 371
105 374
105 425
105 442
105 512
105 517
105 543
105 697
105 720
105 731
105 745
105 775
105 901
105 980
106 372
106 375
106 426
106 443
106 513
106 518
106 544
106 698
106 721
106 732
106 746
106 776
106 902
106 981
107 373
107 376
107 427
107 444
107 514
107 519
107 545
107 699
107 722
107 733
107 747
107 777
107 903
107 982
108 374
108 377
108 428
108 445
108 515
108 520
108 546
108 700
108 723
108 734
108 748
108 778
108 904
108 983
109 375
109 378
109 429
109 446
109 516
109 521
109 547
109 701
109 724
109 735
109 749
109 779
109 905
109 984
110 376
110 379
110 430
110 447
110 517
110 522
110 548
110 702
110 725
110 736
110 750
110 780
110 906
110 985
111 377
111 380
111 431
111 448
111 518
111 523
111 549
111 703
111 726
111 737
111 751
111 781
111 907
111 986
112 378
112 381
112 432
112 449
112 519
112 524
112 550
112 704
112 727
112 738
112 752
112 782
112 908
112 987
113 379
113 382
113 433
113 450
113 520
113 525
113 551
113 705
113 728
113 739
113 753
113 783
113 909
113 988
114 380
114 383
114 434
114 451
114 521
114 526
114 552
114 706
114 729
114 740
114 754
114 784
114 910
114 989
115 381
115 384
115 435
115 452
115 522
115 527
115 553
115 707
115 730
115 741
115 755
115 785
115 911
115 990
116 382
116 385
116 436
116 453
116 523
116 528
116 554
116 708
116 731
116 742
116 756
116 786
116 912
116 991
117 383
117 386
117 437
117 454
117 524
117 529
117 555
117 709
117 732
117 743
117 757
117 787
117 913
117 992
118 384
118 387
118 438
118 455
118 525
118 530
118 556
118 710
118 733
118 744
118 758
118 788
118 914
118 993
119 385
119 388
119 439
119 456
119 526
119 531
119 557
119 711
119 734
119 745
119 759
119 789
119 915
119 994
120 386
120 389
120 440
120 457
120 527
120 532
120 558
120 712
120 735
120 746
120 760
120 790
120 916
120 995
121 387
121 390
121 441
121 458
121 528
121 533
121 559
121 713
121 736
121 747
121 761
121 791
121 917
121 996
122 388
122 391
122 442
122 459
122 529
122 534
122 560
122 714
122 737
122 748
122 762
122 792
122 918
122 997
123 389
123 392
123 443
123 460
123 530
123 535
123 561
123 715
123 738
123 749
123 763
123 793
123 919
123 998
124 390
124 393
124 444
124 461
124 531
124 536
124 562
124 666
124 716
124 739
124 750
124 764
124 794
124 920
125 391
125 394
125 445
125 462
125 532
125 537
125 563
125 667
125 717
125 740
125 751
125 765
125 795
125 921
126 392
126 395
126 446
126 463
126 533
126 538
126 564
126 668
126 718
126 741
126 752
126 766
126 796
126 922
127 393
127 396
127 447
127 464
127 534
127 539
127 565
127 669
127 719
127 742
127 753
127 767
127 797
127 923
128 394
128 397
128 448
128 465
128 535
128 540
128 566
128 670
128 720
128 743
128 754
128 768
128 798
128 924
129 395
129 398
129 449
129 466
129 536
129 541
129 567
129 671
129 721
129 744
129 755
129 769
129 799
129 925
130 396
130 399
130 450
130 467
130 537
130 542
130 568
130 672
130 722
130 745
130 756
130 770
130 800
130 926
131 397
131 400
131 451
131 468
131 538
131 543
131 569
131 673
131 723
131 746
131 757
131 771
131 801
131 927
132 398
132 401
132 452
132 469
132 539
132 544
132 570
132 674
132 724
132 747
132 758
132 772
132 802
132 928
133 399
133 402
133 453
133 470
133 540
133 545
133 571
133 675
133 725
133 748
133 759
133 773
133 803
133 929
134 400
134 403
134 454
134 471
134 541
134 546
134 572
134 676
134 726
134 749
134 760
134 774
134 804
134 930
135 401
135 404
135 455
135 472
135 542
135 547
135 573
135 677
135 727
135 750
135 761
135 775
135 805
135 931
136 402
136 405
136 456
136 473
136 543
136 548
136 574
136 678
136 728
136 751
136 762
136 776
136 806
136 932
137 403
137 406
137 457
137 474
137 544
137 549
137 575
137 679
137 729
137 752
137 763
137 777
137 807
137 933
138 404
138 407
138 458
138 475
138 545
138 550
138 576
138 680
138 730
138 753
138 764
138 778
138 808
138 934
139 405
139 408
139 459
139 476
139 546
139 551
139 577
139 681
139 731
139 754
139 765
139 779
139 809
139 935
140 406
140 409
140 460
140 477
140 547
140 552
140 578
140 682
140 732
140 755
140 766
140 780
140 810
140 936
141 407
141 410
141 461
141 478
141 548
141 553
141 579
141 683
141 733
141 756
141 767
141 781
141 811
141 937
142 408
142 411
142 462
142 479
142 549
142 554
142 580
142 684
142 734
142 757
142 768
142 782
142 812
142 938
143 409
143 412
143 463
143 480
143 550
143 555
143 581
143 685
143 735
143 758
143 769
143 783
143 813
143 939
144 410
144 413
144 464
144 481
144 551
144 556
144 582
144 686
144 736
144 759
144 770
144 784
144 814
144 940
145 411
145 414
145 465
145 482
145 552
145 557
145 583
145 687
145 737
145 760
145 771
145 785
145 815
145 941
146 412
146 415
146 466
146 483
146 553
146 558
146 584
146 688
146 738
146 761
146 772
146 786
146 816
146 942
147 413
147 416
147 467
147 484
147 554
147 559
147 585
147 689
147 739
147 762
147 773
147 787
147 817
147 943
148 414
148 417
148 468
148 485
148 555
148 560
148 586
148 690
148 740
148 763
148 774
148 788
148 818
148 944
149 415
149 418
149 469
149 486
149 556
149 561
149 587
149 691
149 741
149 764
149 775
149 789
149 819
149 945
150 416
150 419
150 470
150 487
150 557
150 562
150 588
150 692
150 742
150 765
150 776
150 790
150 820
150 946
151 417
151 420
151 471
151 488
151 558
151 563
151 589
151 693
151 743
151 766
151 777
151 791
151 821
151 947
152 418
152 421
152 472
152 489
152 559
152 564
152 590
152 694
152 744
152 767
152 778
152 792
152 822
152 948
153 419
153 422
153 473
153 490
153 560
153 565
153 591
153 695
153 745
153 768
153 779
153 793
153 823
153 949
154 420
154 423
154 474
154 491
154 561
154 566
154 592
154 696
154 746
154 769
154 780
154 794
154 824
154 950
155 421
155 424
155 475
155 492
155 562
155 567
155 593
155 697
155 747
155 770
155 781
155 795
155 825
155 951
156 422
156 425
156 476
156 493
156 563
156 568
156 594
156 698
156 748
156 771
156 782
156 796
156 826
156 952
157 423
157 426
157 477
157 494
157 564
157 569
157 595
157 699
157 749
157 772
157 783
157 797
157 827
157 953
158 424
158 427
158 478
158 495
158 565
158 570
158 596
158 700
158 750
158 773
158 784
158 798
158 828
158 954
159 425
159 428
159 479
159 496
159 566
159 571
159 597
159 701
159 751
159 774
159 785
159 799
159 829
159 955
160 426
160 429
160 480
160 497
160 567
160 572
160 598
160 702
160 752
160 775
160 786
160 800
160 830
160 956
161 427
161 430
161 481
161 498
161 568
161 573
161 599
161 703
161 753
161 776
161 787
161 801
161 831
161 957
162 428
162 431
162 482
162 499
162 569
162 574
162 600
162 704
162 754
162 777
162 788
162 802
162 832
162 958
163 429
163 432
163 483
163 500
163 570
163 575
163 601
163 705
163 755
163 778
163 789
163 803
163 833
163 959
164 430
164 433
164 484
164 501
164 571
164 576
164 602
164 706
164 756
164 779
164 790
164 804
164 834
164 960
165 431
165 434
165 485
165 502
165 572
165 577
165 603
165 707
165 757
165 780
165 791
165 805
165 835
165 961
166 432
166 435
166 486
166 503
166 573
166 578
166 604
166 708
166 758
166 781
166 792
166 806
166 836
166 962
167 433
167 436
167 487
167 504
167 574
167 579
167 605
167 709
167 759
167 782
167 793
167 807
167 837
167 963
168 434
168 437
168 488
168 505
168 575
168 580
168 606
168 710
168 760
168 783
168 794
168 808
168 838
168 964
169 435
169 438
169 489
169 506
169 576
169 581
169 607
169 711
169 761
169 784
169 795
169 809
169 839
169 965
170 436
170 439
170 490
170 507
170 577
170 582
170 608
170 712
170 762
170 785
170 796
170 810
170 840
170 966
171 437
171 440
171 491
171 508
171 578
171 583
171 609
171 713
171 763
171 786
171 797
171 811
171 841
171 967
172 438
172 441
172 492
172 509
172 579
172 584
172 610
172 714
172 764
172 787
172 798
172 812
172 842
172 968
173 439
173 442
173 493
173 510
173 580
173 585
173 611
173 715
173 765
173 788
173 799
173 813
173 843
173 969
174 440
174 443
174 494
174 511
174 581
174 586
174 612
174 716
174 766
174 789
174 800
174 814
174 844
174 970
175 441
175 444
175 495
175 512
175 582
175 587
175 613
175 717
175 767
175 790
175 801
175 815
175 845
175 971
176 442
176 445
176 496
176 513
176 583
176 588
176 614
176 718
176 768
176 791
176 802
176 816
176 846
176 972
177 443
177 446
177 497
177 514
177 584
177 589
177 615
177 719
177 769
177 792
177 803
177 817
177 847
177 973
178 444
178 447
178 498
178 515
178 585
178 590
178 616
178 720
178 770
178 793
178 804
178 818
178 848
178 974
179 445
179 448
179 499
179 516
179 586
179 591
179 617
179 721
179 771
179 794
179 805
179 819
179 849
179 975
180 446
180 449
180 500
180 517
180 587
180 592
180 618
180 722
180 772
180 795
180 806
180 820
180 850
180 976
181 447
181 450
181 501
181 518
181 588
181 593
181 619
181 723
181 773
181 796
181 807
181 821
181 851
181 977
182 448
182 451
182 502
182 519
182 589
182 594
182 620
182 724
182 774
182 797
182 808
182 822
182 852
182 978
183 449
183 452
183 503
183 520
183 590
183 595
183 621
183 725
183 775
183 798
183 809
183 823
183 853
183 979
184 450
184 453
184 504
184 521
184 591
184 596
184 622
184 726
184 776
184 799
184 810
184 824
184 854
184 980
185 451
185 454
185 505
185 522
185 592
185 597
185 623
185 727
185 777
185 800
185 811
185 825
185 855
185 981
186 452
186 455
186 506
186 523
186 593
186 598
186 624
186 728
186 778
186 801
186 812
186 826
186 856
186 982
187 453
187 456
187 507
187 524
187 594
187 599
187 625
187 729
187 779
187 802
187 813
187 827
187 857
187 983
188 454
188 457
188 508
188 525
188 595
188 600
188 626
188 730
188 780
188 803
188 814
188 828
188 858
188 984
189 455
189 458
189 509
189 526
189 596
189 601
189 627
189 731
189 781
189 804
189 815
189 829
189 859
189 985
190 456
190 459
190 510
190 527
190 597
190 602
190 628
190 732
190 782
190 805
190 816
190 830
190 860
190 986
191 457
191 460
191 511
191 528
191 598
191 603
191 629
191 733
191 783
191 806
191 817
191 831
191 861
191 987
192 458
192 461
192 512
192 529
192 599
192 604
192 630
192 734
192 784
192 807
192 818
192 832
192 862
192 988
193 459
193 462
193 513
193 530
193 600
193 605
193 631
193 735
193 785
193 808
193 819
193 833
193 863
193 989
194 460
194 463
194 514
194 531
194 601
194 606
194 632
194 736
194 786
194 809
194 820
194 834
194 864
194 990
195 461
195 464
195 515
195 532
195 602
195 607
195 633
195 737
195 787
195 810
195 821
195 835
195 865
195 991
196 462
196 465
196 516
196 533
196 603
196 608
196 634
196 738
196 788
196 811
196 822
196 836
196 866
196 992
197 463
197 466
197 517
197 534
197 604
197 609
197 635
197 739
197 789
197 812
197 823
197 837
197 867
197 993
198 464
198 467
198 518
198 535
198 605
198 610
198 636
198 740
198 790
198 813
198 824
198 838
198 868
198 994
199 465
199 468
199 519
199 536
199 606
199 611
199 637
199 741
199 791
199 814
199 825
199 839
199 869
199 995
200 466
200 469
200 520
200 537
200 607
200 612
200 638
200 742
200 792
200 815
200 826
200 840
200 870
200 996
201 467
201 470
201 521
201 538
201 608
201 613
201 639
201 743
201 793
201 816
201 827
201 841
201 871
201 997
202 468
202 471
202 522
202 539
202 609
202 614
202 640
202 744
202 794
202 817
202 828
202 842
202 872
202 998
203 469
203 472
203 523
203 540
203 610
203 615
203 641
203 666
203 745
203 795
203 818
203 829
203 843
203 873
204 470
204 473
204 524
204 541
204 611
204 616
204 642
204 667
204 746
204 796
204 819
204 830
204 844
204 874
205 471
205 474
205 525
205 542
205 612
205 617
205 643
205 668
205 747
205 797
205 820
205 831
205 845
205 875
206 472
206 475
206 526
206 543
206 613
206 618
206 644
206 669
206 748
206 798
206 821
206 832
206 846
206 876
207 473
207 476
207 527
207 544
207 614
207 619
207 645
207 670
207 749
207 799
207 822
207 833
207 847
207 877
208 474
208 477
208 528
208 545
208 615
208 620
208 646
208 671
208 750
208 800
208 823
208 834
208 848
208 878
209 475
209 478
209 529
209 546
209 616
209 621
209 647
209 672
209 751
209 801
209 824
209 835
209 849
209 879
210 476
210 479
210 530
210 547
210 617
210 622
210 648
210 673
210 752
210 802
210 825
210 836
210 850
210 880
211 477
211 480
211 531
211 548
211 618
211 623
211 649
211 674
211 753
211 803
211 826
211 837
211 851
211 881
212 478
212 481
212 532
212 549
212 619
212 624
212 650
212 675
212 754
212 804
212 827
212 838
212 852
212 882
213 479
213 482
213 533
213 550
213 620
213 625
213 651
213 676
213 755
213 805
213 828
213 839
213 853
213 883
214 480
214 483
214 534
214 551
214 621
214 626
214 652
214 677
214 756
214 806
214 829
214 840
214 854
214 884
215 481
215 484
215 535
215 552
215 622
215 627
215 653
215 678
215 757
215 807
215 830
215 841
215 855
215 885
216 482
216 485
216 536
216 553
216 623
216 628
216 654
216 679
216 758
216 808
216 831
216 842
216 856
216 886
217 483
217 486
217 537
217 554
217 624
217 629
217 655
217 680
217 759
217 809
217 832
217 843
217 857
217 887
218 484
218 487
218 538
218 555
218 625
218 630
218 656
218 681
218 760
218 810
218 833
218 844
218 858
218 888
219 485
219 488
219 539
219 556
219 626
219 631
219 657
219 682
219 761
219 811
219 834
219 845
219 859
219 889
220 486
220 489
220 540
220 557
220 627
220 632
220 658
220 683
220 762
220 812
220 835
220 846
220 860
220 890
221 487
221 490
221 541
221 558
221 628
221 633
221 659
221 684
221 763
221 813
221 836
221 847
221 861
221 891
222 488
222 491
222 542
222 559
222 629
222 634
222 660
222 685
222 764
222 814
222 837
222 848
222 862
222 892
223 489
223 492
223 543
223 560
223 630
223 635
223 661
223 686
223 765
223 815
223 838
223 849
223 863
223 893
224 490
224 493
224 544
224 561
224 631
224 636
224 662
224 687
224 766
224 816
224 839
224 850
224 864
224 894
225 491
225 494
225 545
225 562
225 632
225 637
225 663
225 688
225 767
225 817
225 840
225 851
225 865
225 895
226 492
226 495
226 546
226 563
226 633
226 638
226 664
226 689
226 768
226 818
226 841
226 852
226 866
226 896
227 493
227 496
227 547
227 564
227 634
227 639
227 665
227 690
227 769
227 819
227 842
227 853
227 867
227 897
228 333
228 494
228 497
228 548
228 565
228 635
228 640
228 691
228 770
228 820
228 843
228 854
228 868
228 898
229 334
229 495
229 498
229 549
229 566
229 636
229 641
229 692
229 771
229 821
229 844
229 855
229 869
229 899
230 335
230 496
230 499
230 550
230 567
230 637
230 642
230 693
230 772
230 822
230 845
230 856
230 870
230 900
231 336
231 497
231 500
231 551
231 568
231 638
231 643
231 694
231 773
231 823
231 846
231 857
231 871
231 901
232 337
232 498
232 501
232 552
232 569
232 639
232 644
232 695
232 774
232 824
232 847
232 858
232 872
232 902
233 338
233 499
233 502
233 553
233 570
233 640
233 645
233 696
233 775
233 825
233 848
233 859
233 873
233 903
234 339
234 500
234 503
234 554
234 571
234 641
234 646
234 697
234 776
234 826
234 849
234 860
234 874
234 904
235 340
235 501
235 504
235 555
235 572
235 642
235 647
235 698
235 777
235 827
235 850
235 861
235 875
235 905
236 341
236 502
236 505
236 556
236 573
236 643
236 648
236 699
236 778
236 828
236 851
236 862
236 876
236 906
237 342
237 503
237 506
237 557
237 574
237 644
237 649
237 700
237 779
237 829
237 852
237 863
237 877
237 907
238 343
238 504
238 507
238 558
238 575
238 645
238 650
238 701
238 780
238 830
238 853
238 864
238 878
238 908
239 344
239 505
239 508
239 559
239 576
239 646
239 651
239 702
239 781
239 831
239 854
239 865
239 879
239 909
240 345
240 506
240 509
240 560
240 577
240 647
240 652
240 703
240 782
240 832
240 855
240 866
240 880
240 910
241 346
241 507
241 510
241 561
241 578
241 648
241 653
241 704
241 783
241 833
241 856
241 867
241 881
241 911
242 347
242 508
242 511
242 562
242 579
242 649
242 654
242 705
242 784
242 834
242 857
242 868
242 882
242 912
243 348
243 509
243 512
243 563
243 580
243 650
243 655
243 706
243 785
243 835
243 858
243 869
243 883
243 913
244 349
244 510
244 513
244 564
244 581
244 651
244 656
244 707
244 786
244 836
244 859
244 870
244 884
244 914
245 350
245 511
245 514
245 565
245 582
245 652
245 657
245 708
245 787
245 837
245 860
245 871
245 885
245 915
246 351
246 512
246 515
246 566
246 583
246 653
246 658
246 709
246 788
246 838
246 861
246 872
246 886
246 916
247 352
247 513
247 516
247 567
247 584
247 654
247 659
247 710
247 789
247 839
247 862
247 873
247 887
247 917
248 353
248 514
248 517
248 568
248 585
248 655
248 660
248 711
248 790
248 840
248 863
248 874
248 888
248 918
249 354
249 515
249 518
249 569
249 586
249 656
249 661
249 712
249 791
249 841
249 864
249 875
249 889
249 919
250 355
250 516
250 519
250 570
250 587
250 657
250 662
250 713
250 792
250 842
250 865
250 876
250 890
250 920
251 356
251 517
251 520
251 571
251 588
251 658
251 663
251 714
251 793
251 843
251 866
251 877
251 891
251 921
252 357
252 518
252 521
252 572
252 589
252 659
252 664
252 715
252 794
252 844
252 867
252 878
252 892
252 922
253 358
253 519
253 522
253 573
253 590
253 660
253 665
253 716
253 795
253 845
253 868
253 879
253 893
253 923
254 333
254 359
254 520
254 523
254 574
254 591
254 661
254 717
254 796
254 846
254 869
254 880
254 894
254 924
255 334
255 360
255 521
255 524
255 575
255 592
255 662
255 718
255 797
255 847
255 870
255 881
255 895
255 925
256 335
256 361
256 522
256 525
256 576
256 593
256 663
256 719
256 798
256 848
256 871
256 882
256 896
256 926
257 336
257 362
257 523
257 526
257 577
257 594
257 664
257 720
257 799
257 849
257 872
257 883
257 897
257 927
258 337
258 363
258 524
258 527
258 578
258 595
258 665
258 721
258 800
258 850
258 873
258 884
258 898
258 928
259 333
259 338
259 364
259 525
259 528
259 579
259 596
259 722
259 801
259 851
259 874
259 885
259 899
259 929
260 334
260 339
260 365
260 526
260 529
260 580
260 597
260 723
260 802
260 852
260 875
260 886
260 900
260 930
261 335
261 340
261 366
261 527
261 530
261 581
261 598
261 724
261 803
261 853
261 876
261 887
261 901
261 931
262 336
262 341
262 367
262 528
262 531
262 582
262 599
262 725
262 804
262 854
262 877
262 888
262 902
262 932
263 337
263 342
263 368
263 529
263 532
263 583
263 600
263 726
263 805
263 855
263 878
263 889
263 903
263 933
264 338
264 343
264 369
264 530
264 533
264 584
264 601
264 727
264 806
264 856
264 879
264 890
264 904
264 934
265 339
265 344
265 370
265 531
265 534
265 585
265 602
265 728
265 807
265 857
265 880
265 891
265 905
265 935
266 340
266 345
266 371
266 532
266 535
266 586
266 603
266 729
266 808
266 858
266 881
266 892
266 906
266 936
267 341
267 346
267 372
267 533
267 536
267 587
267 604
267 730
267 809
267 859
267 882
267 893
267 907
267 937
268 342
268 347
268 373
268 534
268 537
268 588
268 605
268 731
268 810
268 860
268 883
268 894
268 908
268 938
269 343
269 348
269 374
269 535
269 538
269 589
269 606
269 732
269 811
269 861
269 884
269 895
269 909
269 939
270 344
270 349
270 375
270 536
270 539
270 590
270 607
270 733
270 812
270 862
270 885
270 896
270 910
270 940
271 345
271 350
271 376
271 537
271 540
271 591
271 608
271 734
271 813
271 863
271 886
271 897
271 911
271 941
272 346
272 351
272 377
272 538
272 541
272 592
272 609
272 735
272 814
272 864
272 887
272 898
272 912
272 942
273 347
273 352
273 378
273 539
273 542
273 593
273 610
273 736
273 815
273 865
273 888
273 899
273 913
273 943
274 348
274 353
274 379
274 540
274 543
274 594
274 611
274 737
274 816
274 866
274 889
274 900
274 914
274 944
275 349
275 354
275 380
275 541
275 544
275 595
275 612
275 738
275 817
275 867
275 890
275 901
275 915
275 945
276 350
276 355
276 381
276 542
276 545
276 596
276 613
276 739
276 818
276 868
276 891
276 902
276 916
276 946
277 351
277 356
277 382
277 543
277 546
277 597
277 614
277 740
277 819
277 869
277 892
277 903
277 917
277 947
278 352
278 357
278 383
278 544
278 547
278 598
278 615
278 741
278 820
278 870
278 893
278 904
278 918
278 948
279 353
279 358
279 384
279 545
279 548
279 599
279 616
279 742
279 821
279 871
279 894
279 905
279 919
279 949
280 354
280 359
280 385
280 546
280 549
280 600
280 617
280 743
280 822
280 872
280 895
280 906
280 920
280 950
281 355
281 360
281 386
281 547
281 550
281 601
281 618
281 744
281 823
281 873
281 896
281 907
281 921
281 951
282 356
282 361
282 387
282 548
282 551
282 602
282 619
282 745
282 824
282 874
282 897
282 908
282 922
282 952
283 357
283 362
283 388
283 549
283 552
283 603
283 620
283 746
283 825
283 875
283 898
283 909
283 923
283 953
284 358
284 363
284 389
284 550
284 553
284 604
284 621
284 747
284 826
284 876
284 899
284 910
284 924
284 954
285 359
285 364
285 390
285 551
285 554
285 605
285 622
285 748
285 827
285 877
285 900
285 911
285 925
285 955
286 360
286 365
286 391
286 552
286 555
286 606
286 623
286 749
286 828
286 878
286 901
286 912
286 926
286 956
287 361
287 366
287 392
287 553
287 556
287 607
287 624
287 750
287 829
287 879
287 902
287 913
287 927
287 957
288 362
288 367
288 393
288 554
288 557
288 608
288 625
288 751
288 830
288 880
288 903
288 914
288 928
288 958
289 363
289 368
289 394
289 555
289 558
289 609
289 626
289 752
289 831
289 881
289 904
289 915
289 929
289 959
290 364
290 369
290 395
290 556
290 559
290 610
290 627
290 753
290 832
290 882
290 905
290 916
290 930
290 960
291 365
291 370
291 396
291 557
291 560
291 611
291 628
291 754
291 833
291 883
291 906
291 917
291 931
291 961
292 366
292 371
292 397
292 558
292 561
292 612
292 629
292 755
292 834
292 884
292 907
292 918
292 932
292 962
293 367
293 372
293 398
293 559
293 562
293 613
293 630
293 756
293 835
293 885
293 908
293 919
293 933
293 963
294 368
294 373
294 399
294 560
294 563
294 614
294 631
294 757
294 836
294 886
294 909
294 920
294 934
294 964
295 369
295 374
295 400
295 561
295 564
295 615
295 632
295 758
295 837
295 887
295 910
295 921
295 935
295 965
296 370
296 375
296 401
296 562
296 565
296 616
296 633
296 759
296 838
296 888
296 911
296 922
296 936
296 966
297 371
297 376
297 402
297 563
297 566
297 617
297 634
297 760
297 839
297 889
297 912
297 923
297 937
297 967
298 372
298 377
298 403
298 564
298 567
298 618
298 635
298 761
298 840
298 890
298 913
298 924
298 938
298 968
299 373
299 378
299 404
299 565
299 568
299 619
299 636
299 762
299 841
299 891
299 914
299 925
299 939
299 969
300 374
300 379
300 405
300 566
300 569
300 620
300 637
300 763
300 842
300 892
300 915
300 926
300 940
300 970
301 375
301 380
301 406
301 567
301 570
301 621
301 638
301 764
301 843
301 893
301 916
301 927
301 941
301 971
302 376
302 381
302 407
302 568
302 571
302 622
302 639
302 765
302 844
302 894
302 917
302 928
302 942
302 972
303 377
303 382
303 408
303 569
303 572
303 623
303 640
303 766
303 845
303 895
303 918
303 929
303 943
303 973
304 378
304 383
304 409
304 570
304 573
304 624
304 641
304 767
304 846
304 896
304 919
304 930
304 944
304 974
305 379
305 384
305 410
305 571
305 574
305 625
305 642
305 768
305 847
305 897
305 920
305 931
305 945
305 975
306 380
306 385
306 411
306 572
306 575
306 626
306 643
306 769
306 848
306 898
306 921
306 932
306 946
306 976
307 381
307 386
307 412
307 573
307 576
307 627
307 644
307 770
307 849
307 899
307 922
307 933
307 947
307 977
308 382
308 387
308 413
308 574
308 577
308 628
308 645
308 771
308 850
308 900
308 923
308 934
308 948
308 978
309 383
309 388
309 414
309 575
309 578
309 629
309 646
309 772
309 851
309 901
309 924
309 935
309 949
309 979
310 384
310 389
310 415
310 576
310 579
310 630
310 647
310 773
310 852
310 902
310 925
310 936
310 950
310 980
311 385
311 390
311 416
311 577
311 580
311 631
311 648
311 774
311 853
311 903
311 926
311 937
311 951
311 981
312 386
312 391
312 417
312 578
312 581
312 632
312 649
312 775
312 854
312 904
312 927
312 938
312 952
312 982
313 387
313 392
313 418
313 579
313 582
313 633
313 650
313 776
313 855
313 905
313 928
313 939
313 953
313 983
314 388
314 393
314 419
314 580
314 583
314 634
314 651
314 777
314 856
314 906
314 929
314 940
314 954
314 984
315 389
315 394
315 420
315 581
315 584
315 635
315 652
315 778
315 857
315 907
315 930
315 941
315 955
315 985
316 390
316 395
316 421
316 582
316 585
316 636
316 653
316 779
316 858
316 908
316 931
316 942
316 956
316 986
317 391
317 396
317 422
317 583
317 586
317 637
317 654
317 780
317 859
317 909
317 932
317 943
317 957
317 987
318 392
318 397
318 423
318 584
318 587
318 638
318 655
318 781
318 860
318 910
318 933
318 944
318 958
318 988
319 393
319 398
319 424
319 585
319 588
319 639
319 656
319 782
319 861
319 911
319 934
319 945
319 959
319 989
320 394
320 399
320 425
320 586
320 589
320 640
320 657
320 783
320 862
320 912
320 935
320 946
320 960
320 990
321 395
321 400
321 426
321 587
321 590
321 641
321 658
321 784
321 863
321 913
321 936
321 947
321 961
321 991
322 396
322 401
322 427
322 588
322 591
322 642
322 659
322 785
322 864
322 914
322 937
322 948
322 962
322 992
323 397
323 402
323 428
323 589
323 592
323 643
323 660
323 786
323 865
323 915
323 938
323 949
323 963
323 993
324 398
324 403
324 429
324 590
324 593
324 644
324 661
324 787
324 866
324 916
324 939
324 950
324 964
324 994
325 399
325 404
325 430
325 591
325 594
325 645
325 662
325 788
325 867
325 917
325 940
325 951
325 965
325 995
326 400
326 405
326 431
326 592
326 595
326 646
326 663
326 789
326 868
326 918
326 941
326 952
326 966
326 996
327 401
327 406
327 432
327 593
327 596
327 647
327 664
327 790
327 869
327 919
327 942
327 953
327 967
327 997
328 402
328 407
328 433
328 594
328 597
328 648
328 665
328 791
328 870
328 920
328 943
328 954
328 968
328 998
329 333
329 403
329 408
329 434
329 595
329 598
329 649
329 666
329 792
329 871
329 921
329 944
329 955
329 969
330 334
330 404
330 409
330 435
330 596
330 599
330 650
330 667
330 793
330 872
330 922
330 945
330 956
330 970
331 335
331 405
331 410
331 436
331 597
331 600
331 651
331 668
331 794
331 873
331 923
331 946
331 957
331 971
332 336
332 406
332 411
332 437
332 598
332 601
332 652
332 669
332 795
332 874
332 924
332 947
332 958
332 972
333 698
333 733
333 740
333 843
333 907
333 926
333 959
334 699
334 734
334 741
334 844
334 908
334 927
334 960
335 700
335 735
335 742
335 845
335 909
335 928
335 961
336 701
336 736
336 743
336 846
336 910
336 929
336 962
337 702
337 737
337 744
337 847
337 911
337 930
337 963
338 703
338 738
338 745
338 848
338 912
338 931
338 964
339 704
339 739
339 746
339 849
339 913
339 932
339 965
340 705
340 740
340 747
340 850
340 914
340 933
340 966
341 706
341 741
341 748
341 851
341 915
341 934
341 967
342 707
342 742
342 749
342 852
342 916
342 935
342 968
343 708
343 743
343 750
343 853
343 917
343 936
343 969
344 709
344 744
344 751
344 854
344 918
344 937
344 970
345 710
345 745
345 752
345 855
345 919
345 938
345 971
346 711
346 746
346 753
346 856
346 920
346 939
346 972
347 712
347 747
347 754
347 857
347 921
347 940
347 973
348 713
348 748
348 755
348 858
348 922
348 941
348 974
349 714
349 749
349 756
349 859
349 923
349 942
349 975
350 715
350 750
350 757
350 860
350 924
350 943
350 976
351 716
351 751
351 758
351 861
351 925
351 944
351 977
352 717
352 752
352 759
352 862
352 926
352 945
352 978
353 718
353 753
353 760
353 863
353 927
353 946
353 979
354 719
354 754
354 761
354 864
354 928
354 947
354 980
355 720
355 755
355 762
355 865
355 929
355 948
355 981
356 721
356 756
356 763
356 866
356 930
356 949
356 982
357 722
357 757
357 764
357 867
357 931
357 950
357 983
358 723
358 758
358 765
358 868
358 932
358 951
358 984
359 724
359 759
359 766
359 869
359 933
359 952
359 985
360 725
360 760
360 767
360 870
360 934
360 953
360 986
361 726
361 761
361 768
361 871
361 935
361 954
361 987
362 727
362 762
362 769
362 872
362 936
362 955
362 988
363 728
363 763
363 770
363 873
363 937
363 956
363 989
364 729
364 764
364 771
364 874
364 938
364 957
364 990
365 730
365 765
365 772
365 875
365 939
365 958
365 991
366 731
366 766
366 773
366 876
366 940
366 959
366 992
367 732
367 767
367 774
367 877
367 941
367 960
367 993
368 733
368 768
368 775
368 878
368 942
368 961
368 994
369 734
369 769
369 776
369 879
369 943
369 962
369 995
370 735
370 770
370 777
370 880
370 944
370 963
370 996
371 736
371 771
371 778
371 881
371 945
371 964
371 997
372 737
372 772
372 779
372 882
372 946
372 965
372 998
373 666
373 738
373 773
373 780
373 883
373 947
373 966
374 667
374 739
374 774
374 781
374 884
374 948
374 967
375 668
375 740
375 775
375 782
375 885
375 949
375 968
376 669
376 741
376 776
376 783
376 886
376 950
376 969
377 670
377 742
377 777
377 784
377 887
377 951
377 970
378 671
378 743
378 778
378 785
378 888
378 952
378 971
379 672
379 744
379 779
379 786
379 889
379 953
379 972
380 673
380 745
380 780
380 787
380 890
380 954
380 973
381 674
381 746
381 781
381 788
381 891
381 955
381 974
382 675
382 747
382 782
382 789
382 892
382 956
382 975
383 676
383 748
383 783
383 790
383 893
383 957
383 976
384 677
384 749
384 784
384 791
384 894
384 958
384 977
385 678
385 750
385 785
385 792
385 895
385 959
385 978
386 679
386 751
386 786
386 793
386 896
386 960
386 979
387 680
387 752
387 787
387 794
387 897
387 961
387 980
388 681
388 753
388 788
388 795
388 898
388 962
388 981
389 682
389 754
389 789
389 796
389 899
389 963
389 982
390 683
390 755
390 790
390 797
390 900
390 964
390 983
391 684
391 756
391 791
391 798
391 901
391 965
391 984
392 685
392 757
392 792
392 799
392 902
392 966
392 985
393 686
393 758
393 793
393 800
393 903
393 967
393 986
394 687
394 759
394 794
394 801
394 904
394 968
394 987
395 688
395 760
395 795
395 802
395 905
395 969
395 988
396 689
396 761
396 796
396 803
396 906
396 970
396 989
397 690
397 762
397 797
397 804
397 907
397 971
397 990
398 691
398 763
398 798
398 805
398 908
398 972
398 991
399 692
399 764
399 799
399 806
399 909
399 973
399 992
400 693
400 765
400 800
400 807
400 910
400 974
400 993
401 694
401 766
401 801
401 808
401 911
401 975
401 994
402 695
402 767
402 802
402 809
402 912
402 976
402 995
403 696
403 768
403 803
403 810
403 913
403 977
403 996
404 697
404 769
404 804
404 811
404 914
404 978
404 997
405 698
405 770
405 805
405 812
405 915
405 979
405 998
406 666
406 699
406 771
406 806
406 813
406 916
406 980
407 667
407 700
407 772
407 807
407 814
407 917
407 981
408 668
408 701
408 773
408 808
408 815
408 918
408 982
409 669
409 702
409 774
409 809
409 816
409 919
409 983
410 670
410 703
410 775
410 810
410 817
410 920
410 984
411 671
411 704
411 776
411 811
411 818
411 921
411 985
412 672
412 705
412 777
412 812
412 819
412 922
412 986
413 673
413 706
413 778
413 813
413 820
413 923
413 987
414 674
414 707
414 779
414 814
414 821
414 924
414 988
415 675
415 708
415 780
415 815
415 822
415 925
415 989
416 676
416 709
416 781
416 816
416 823
416 926
416 990
417 677
417 710
417 782
417 817
417 824
417 927
417 991
418 678
418 711
418 783
418 818
418 825
418 928
418 992
419 679
419 712
419 784
419 819
419 826
419 929
419 993
420 680
420 713
420 785
420 820
420 827
420 930
420 994
421 681
421 714
421 786
421 821
421 828
421 931
421 995
422 682
422 715
422 787
422 822
422 829
422 932
422 996
423 683
423 716
423 788
423 823
423 830
423 933
423 997
424 684
424 717
424 789
424 824
424 831
424 934
424 998
425 666
425 685
425 718
425 790
425 825
425 832
425 935
426 667
426 686
426 719
426 791
426 826
426 833
426 936
427 668
427 687
427 720
427 792
427 827
427 834
427 937
428 669
428 688
428 721
428 793
428 828
428 835
428 938
429 670
429 689
429 722
429 794
429 829
429 836
429 939
430 671
430 690
430 723
430 795
430 830
430 837
430 940
431 672
431 691
431 724
431 796
431 831
431 838
431 941
432 673
432 692
432 725
432 797
432 832
432 839
432 942
433 674
433 693
433 726
433 798
433 833
433 840
433 943
434 675
434 694
434 727
434 799
434 834
434 841
434 944
435 676
435 695
435 728
435 800
435 835
435 842
435 945
436 677
436 696
436 729
436 801
436 836
436 843
436 946
437 678
437 697
437 730
437 802
437 837
437 844
437 947
438 679
438 698
438 731
438 803
438 838
438 845
438 948
439 680
439 699
439 732
439 804
439 839
439 846
439 949
440 681
440 700
440 733
440 805
440 840
440 847
440 950
441 682
441 701
441 734
441 806
441 841
441 848
441 951
442 683
442 702
442 735
442 807
442 842
442 849
442 952
443 684
443 703
443 736
443 808
443 843
443 850
443 953
444 685
444 704
444 737
444 809
444 844
444 851
444 954
445 686
445 705
445 738
445 810
445 845
445 852
445 955
446 687
446 706
446 739
446 811
446 846
446 853
446 956
447 688
447 707
447 740
447 812
447 847
447 854
447 957
448 689
448 708
448 741
448 813
448 848
448 855
448 958
449 690
449 709
449 742
449 814
449 849
449 856
449 959
450 691
450 710
450 743
450 815
450 850
450 857
450 960
451 692
451 711
451 744
451 816
451 851
451 858
451 961
452 693
452 712
452 745
452 817
452 852
452 859
452 962
453 694
453 713
453 746
453 818
453 853
453 860
453 963
454 695
454 714
454 747
454 819
454 854
454 861
454 964
455 696
455 715
455 748
455 820
455 855
455 862
455 965
456 697
456 716
456 749
456 821
456 856
456 863
456 966
457 698
457 717
457 750
457 822
457 857
457 864
457 967
458 699
458 718
458 751
458 823
458 858
458 865
458 968
459 700
459 719
459 752
459 824
459 859
459 866
459 969
460 701
460 720
460 753
460 825
460 860
460 867
460 970
461 702
461 721
461 754
461 826
461 861
461 868
461 971
462 703
462 722
462 755
462 827
462 862
462 869
462 972
463 704
463 723
463 756
463 828
463 863
463 870
463 973
464 705
464 724
464 757
464 829
464 864
464 871
464 974
465 706
465 725
465 758
465 830
465 865
465 872
465 975
466 707
466 726
466 759
466 831
466 866
466 873
466 976
467 708
467 727
467 760
467 832
467 867
467 874
467 977
468 709
468 728
468 761
468 833
468 868
468 875
468 978
469 710
469 729
469 762
469 834
469 869
469 876
469 979
470 711
470 730
470 763
470 835
470 870
470 877
470 980
471 712
471 731
471 764
471 836
471 871
471 878
471 981
472 713
472 732
472 765
472 837
472 872
472 879
472 982
473 714
473 733
473 766
473 838
473 873
473 880
473 983
474 715
474 734
474 767
474 839
474 874
474 881
474 984
475 716
475 735
475 768
475 840
475 875
475 882
475 985
476 717
476 736
476 769
476 841
476 876
476 883
476 986
477 718
477 737
477 770
477 842
477 877
477 884
477 987
478 719
478 738
478 771
478 843
478 878
478 885
478 988
479 720
479 739
479 772
479 844
479 879
479 886
479 989
480 721
480 740
480 773
480 845
480 880
480 887
480 990
481 722
481 741
481 774
481 846
481 881
481 888
481 991
482 723
482 742
482 775
482 847
482 882
482 889
482 992
483 724
483 743
483 776
483 848
483 883
483 890
483 993
484 725
484 744
484 777
484 849
484 884
484 891
484 994
485 726
485 745
485 778
485 850
485 885
485 892
485 995
486 727
486 746
486 779
486 851
486 886
486 893
486 996
487 728
487 747
487 780
487 852
487 887
487 894
487 997
488 729
488 748
488 781
488 853
488 888
488 895
488 998
489 666
489 730
489 749
489 782
489 854
489 889
489 896
490 667
490 731
490 750
490 783
490 855
490 890
490 897
491 668
491 732
491 751
491 784
491 856
491 891
491 898
492 669
492 733
492 752
492 785
492 857
492 892
492 899
493 670
493 734
493 753
493 786
493 858
493 893
493 900
494 671
494 735
494 754
494 787
494 859
494 894
494 901
495 672
495 736
495 755
495 788
495 860
495 895
495 902
496 673
496 737
496 756
496 789
496 861
496 896
496 903
497 674
497 738
497 757
497 790
497 862
497 897
497 904
498 675
498 739
498 758
498 791
498 863
498 898
498 905
499 676
499 740
499 759
499 792
499 864
499 899
499 906
500 677
500 741
500 760
500 793
500 865
500 900
500 907
501 678
501 742
501 761
501 794
501 866
501 901
501 908
502 679
502 743
502 762
502 795
502 867
502 902
502 909
503 680
503 744
503 763
503 796
503 868
503 903
503 910
504 681
504 745
504 764
504 797
504 869
504 904
504 911
505 682
505 746
505 765
505 798
505 870
505 905
505 912
506 683
506 747
506 766
506 799
506 871
506 906
506 913
507 684
507 748
507 767
507 800
507 872
507 907
507 914
508 685
508 749
508 768
508 801
508 873
508 908
508 915
509 686
509 750
509 769
509 802
509 874
509 909
509 916
510 687
510 751
510 770
510 803
510 875
510 910
510 917
511 688
511 752
511 771
511 804
511 876
511 911
511 918
512 689
512 753
512 772
512 805
512 877
512 912
512 919
513 690
513 754
513 773
513 806
513 878
513 913
513 920
514 691
514 755
514 774
514 807
514 879
514 914
514 921
515 692
515 756
515 775
515 808
515 880
515 915
515 922
516 693
516 757
516 776
516 809
516 881
516 916
516 923
517 694
517 758
517 777
517 810
517 882
517 917
517 924
518 695
518 759
518 778
518 811
518 883
518 918
518 925
519 696
519 760
519 779
519 812
519 884
519 919
519 926
520 697
520 761
520 780
520 813
520 885
520 920
520 927
521 698
521 762
521 781
521 814
521 886
521 921
521 928
522 699
522 763
522 782
522 815
522 887
522 922
522 929
523 700
523 764
523 783
523 816
523 888
523 923
523 930
524 701
524 765
524 784
524 817
524 889
524 924
524 931
525 702
525 766
525 785
525 818
525 890
525 925
525 932
526 703
526 767
526 786
526 819
526 891
526 926
526 933
527 704
527 768
527 787
527 820
527 892
527 927
527 934
528 705
528 769
528 788
528 821
528 893
528 928
528 935
529 706
529 770
529 789
529 822
529 894
529 929
529 936
530 707
530 771
530 790
530 823
530 895
530 930
530 937
531 708
531 772
531 791
531 824
531 896
531 931
531 938
532 709
532 773
532 792
532 825
532 897
532 932
532 939
533 710
533 774
533 793
533 826
533 898
533 933
533 940
534 711
534 775
534 794
534 827
534 899
534 934
534 941
535 712
535 776
535 795
535 828
535 900
535 935
535 942
536 713
536 777
536 796
536 829
536 901
536 936
536 943
537 714
537 778
537 797
537 830
537 902
537 937
537 944
538 715
538 779
538 798
538 831
538 903
538 938
538 945
539 716
539 780
539 799
539 832
539 904
539 939
539 946
540 717
540 781
540 800
540 833
540 905
540 940
540 947
541 718
541 782
541 801
541 834
541 906
541 941
541 948
542 719
542 783
542 802
542 835
542 907
542 942
542 949
543 720
543 784
543 803
543 836
543 908
543 943
543 950
544 721
544 785
544 804
544 837
544 909
544 944
544 951
545 722
545 786
545 805
545 838
545 910
545 945
545 952
546 723
546 787
546 806
546 839
546 911
546 946
546 953
547 724
547 788
547 807
547 840
547 912
547 947
547 954
548 725
548 789
548 808
548 841
548 913
548 948
548 955
549 726
549 790
549 809
549 842
549 914
549 949
549 956
550 727
550 791
550 810
550 843
550 915
550 950
550 957
551 728
551 792
551 811
551 844
551 916
551 951
551 958
552 729
552 793
552 812
552 845
552 917
552 952
552 959
553 730
553 794
553 813
553 846
553 918
553 953
553 960
554 731
554 795
554 814
554 847
554 919
554 954
554 961
555 732
555 796
555 815
555 848
555 920
555 955
555 962
556 733
556 797
556 816
556 849
556 921
556 956
556 963
557 734
557 798
557 817
557 850
557 922
557 957
557 964
558 735
558 799
558 818
558 851
558 923
558 958
558 965
559 736
559 800
559 819
559 852
559 924
559 959
559 966
560 737
560 801
560 820
560 853
560 925
560 960
560 967
561 738
561 802
561 821
561 854
561 926
561 961
561 968
562 739
562 803
562 822
562 855
562 927
562 962
562 969
563 740
563 804
563 823
563 856
563 928
563 963
563 970
564 741
564 805
564 824
564 857
564 929
564 964
564 971
565 742
565 806
565 825
565 858
565 930
565 965
565 972
566 743
566 807
566 826
566 859
566 931
566 966
566 973
567 744
567 808
567 827
567 860
567 932
567 967
567 974
568 745
568 809
568 828
568 861
568 933
568 968
568 975
569 746
569 810
569 829
569 862
569 934
569 969
569 976
570 747
570 811
570 830
570 863
570 935
570 970
570 977
571 748
571 812
571 831
571 864
571 936
571 971
571 978
572 749
572 813
572 832
572 865
572 937
572 972
572 979
573 750
573 814
573 833
573 866
573 938
573 973
573 980
574 751
574 815
574 834
574 867
574 939
574 974
574 981
575 752
575 816
575 835
575 868
575 940
575 975
575 982
576 753
576 817
576 836
576 869
576 941
576 976
576 983
577 754
577 818
577 837
577 870
577 942
577 977
577 984
578 755
578 819
578 838
578 871
578 943
578 978
578 985
579 756
579 820
579 839
579 872
579 944
579 979
579 986
580 757
580 821
580 840
580 873
580 945
580 980
580 987
581 758
581 822
581 841
581 874
581 946
581 981
581 988
582 759
582 823
582 842
582 875
582 947
582 982
582 989
583 760
583 824
583 843
583 876
583 948
583 983
583 990
584 761
584 825
584 844
584 877
584 949
584 984
584 991
585 762
585 826
585 845
585 878
585 950
585 985
585 992
586 763
586 827
586 846
586 879
586 951
586 986
586 993
587 764
587 828
587 847
587 880
587 952
587 987
587 994
588 765
588 829
588 848
588 881
588 953
588 988
588 995
589 766
589 830
589 849
589 882
589 954
589 989
589 996
590 767
590 831
590 850
590 883
590 955
590 990
590 997
591 768
591 832
591 851
591 884
591 956
591 991
591 998
592 666
592 769
592 833
592 852
592 885
592 957
592 992
593 667
593 770
593 834
593 853
593 886
593 958
593 993
594 668
594 771
594 835
594 854
594 887
594 959
594 994
595 669
595 772
595 836
595 855
595 888
595 960
595 995
596 670
596 773
596 837
596 856
596 889
596 961
596 996
597 671
597 774
597 838
597 857
597 890
597 962
597 997
598 672
598 775
598 839
598 858
598 891
598 963
598 998
599 666
599 673
599 776
599 840
599 859
599 892
599 964
600 667
600 674
600 777
600 841
600 860
600 893
600 965
601 668
601 675
601 778
601 842
601 861
601 894
601 966
602 669
602 676
602 779
602 843
602 862
602 895
602 967
603 670
603 677
603 780
603 844
603 863
603 896
603 968
604 671
604 678
604 781
604 845
604 864
604 897
604 969
605 672
605 679
605 782
605 846
605 865
605 898
605 970
606 673
606 680
606 783
606 847
606 866
606 899
606 971
607 674
607 681
607 784
607 848
607 867
607 900
607 972
608 675
608 682
608 785
608 849
608 868
608 901
608 973
609 676
609 683
609 786
609 850
609 869
609 902
609 974
610 677
610 684
610 787
610 851
610 870
610 903
610 975
611 678
611 685
611 788
611 852
611 871
611 904
611 976
612 679
612 686
612 789
612 853
612 872
612 905
612 977
613 680
613 687
613 790
613 854
613 873
613 906
613 978
614 681
614 688
614 791
614 855
614 874
614 907
614 979
615 682
615 689
615 792
615 856
615 875
615 908
615 980
616 683
616 690
616 793
616 857
616 876
616 909
616 981
617 684
617 691
617 794
617 858
617 877
617 910
617 982
618 685
618 692
618 795
618 859
618 878
618 911
618 983
619 686
619 693
619 796
619 860
619 879
619 912
619 984
620 687
620 694
620 797
620 861
620 880
620 913
620 985
621 688
621 695
621 798
621 862
621 881
621 914
621 986
622 689
622 696
622 799
622 863
622 882
622 915
622 987
623 690
623 697
623 800
623 864
623 883
623 916
623 988
624 691
624 698
624 801
624 865
624 884
624 917
624 989
625 692
625 699
625 802
625 866
625 885
625 918
625 990
626 693
626 700
626 803
626 867
626 886
626 919
626 991
627 694
627 701
627 804
627 868
627 887
627 920
627 992
628 695
628 702
628 805
628 869
628 888
628 921
628 993
629 696
629 703
629 806
629 870
629 889
629 922
629 994
630 697
630 704
630 807
630 871
630 890
630 923
630 995
631 698
631 705
631 808
631 872
631 891
631 924
631 996
632 699
632 706
632 809
632 873
632 892
632 925
632 997
633 700
633 707
633 810
633 874
633 893
633 926
633 998
634 666
634 701
634 708
634 811
634 875
634 894
634 927
635 667
635 702
635 709
635 812
635 876
635 895
635 928
636 668
636 703
636 710
636 813
636 877
636 896
636 929
637 669
637 704
637 711
637 814
637 878
637 897
637 930
638 670
638 705
638 712
638 815
638 879
638 898
638 931
639 671
639 706
639 713
639 816
639 880
639 899
639 932
640 672
640 707
640 714
640 817
640 881
640 900
640 933
641 673
641 708
641 715
641 818
641 882
641 901
641 934
642 674
642 709
642 716
642 819
642 883
642 902
642 935
643 675
643 710
643 717
643 820
643 884
643 903
643 936
644 676
644 711
644 718
644 821
644 885
644 904
644 937
645 677
645 712
645 719
645 822
645 886
645 905
645 938
646 678
646 713
646 720
646 823
646 887
646 906
646 939
647 679
647 714
647 721
647 824
647 888
647 907
647 940
648 680
648 715
648 722
648 825
648 889
648 908
648 941
649 681
649 716
649 723
649 826
649 890
649 909
649 942
650 682
650 717
650 724
650 827
650 891
650 910
650 943
651 683
651 718
651 725
651 828
651 892
651 911
651 944
652 684
652 719
652 726
652 829
652 893
652 912
652 945
653 685
653 720
653 727
653 830
653 894
653 913
653 946
654 686
654 721
654 728
654 831
654 895
654 914
654 947
655 687
655 722
655 729
655 832
655 896
655 915
655 948
656 688
656 723
656 730
656 833
656 897
656 916
656 949
657 689
657 724
657 731
657 834
657 898
657 917
657 950
658 690
658 725
658 732
658 835
658 899
658 918
658 951
659 691
659 726
659 733
659 836
659 900
659 919
659 952
660 692
660 727
660 734
660 837
660 901
660 920
660 953
661 693
661 728
661 735
661 838
661 902
661 921
661 954
662 694
662 729
662 736
662 839
662 903
662 922
662 955
663 695
663 730
663 737
663 840
663 904
663 923
663 956
664 696
664 731
664 738
664 841
664 905
664 924
664 957
665 697
665 732
665 739
665 842
665 906
665 925
665 958
