# Cayley graph of Z_342 rtimes_49 Z_3, degree 14, target diameter 3
# element (i,j) <-> index j*342+i ; connection set S = [386, 718, 405, 927, 676, 740, 655, 887, 490, 1016, 548, 952, 351, 963]
N 1026
0 351
0 386
0 405
0 490
0 548
0 655
0 676
0 718
0 740
0 887
0 927
0 952
0 963
0 1016
1 352
1 387
1 406
1 491
1 549
1 656
1 677
1 719
1 741
1 888
1 928
1 953
1 964
1 1017
2 353
2 388
2 407
2 492
2 550
2 657
2 678
2 720
2 742
2 889
2 929
2 954
2 965
2 1018
3 354
3 389
3 408
3 493
3 551
3 658
3 679
3 721
3 743
3 890
3 930
3 955
3 966
3 1019
4 355
4 390
4 409
4 494
4 552
4 659
4 680
4 722
4 744
4 891
4 931
4 956
4 967
4 1020
5 356
5 391
5 410
5 495
5 553
5 660
5 681
5 723
5 745
5 892
5 932
5 957
5 968
5 1021
6 357
6 392
6 411
6 496
6 554
6 661
6 682
6 724
6 746
6 893
6 933
6 958
6 969
6 1022
7 358
7 393
7 412
7 497
7 555
7 662
7 683
7 725
7 747
7 894
7 934
7 959
7 970
7 1023
8 342
8 359
8 394
8 413
8 498
8 556
8 663
8 726
8 748
8 895
8 935
8 960
8 971
8 1024
9 343
9 360
9 395
9 414
9 499
9 557
9 664
9 727
9 749
9 896
9 936
9 961
9 972
9 1025
10 344
10 361
10 396
10 415
10 500
10 558
10 665
10 684
10 728
10 750
10 897
10 937
10 962
10 973
11 345
11 362
11 397
11 416
11 501
11 559
11 666
11 685
11 729
11 751
11 898
11 938
11 963
11 974
12 346
12 363
12 398
12 417
12 502
12 560
12 667
12 686
12 730
12 752
12 899
12 939
12 964
12 975
13 347
13 364
13 399
13 418
13 503
13 561
13 668
13 687
13 731
13 753
13 900
13 940
13 965
13 976
14 348
14 365
14 400
14 419
14 504
14 562
14 669
14 688
14 732
14 754
14 901
14 941
14 966
14 977
15 349
15 366
15 401
15 420
15 505
15 563
15 670
15 689
15 733
15 755
15 902
15 942
15 967
15 978
16 350
16 367
16 402
16 421
16 506
16 564
16 671
16 690
16 734
16 756
16 903
16 943
16 968
16 979
17 351
17 368
17 403
17 422
17 507
17 565
17 672
17 691
17 735
17 757
17 904
17 944
17 969
17 980
18 352
18 369
18 404
18 423
18 508
18 566
18 673
18 692
18 736
18 758
18 905
18 945
18 970
18 981
19 353
19 370
19 405
19 424
19 509
19 567
19 674
19 693
19 737
19 759
19 906
19 946
19 971
19 982
20 354
20 371
20 406
20 425
20 510
20 568
20 675
20 694
20 738
20 760
20 907
20 947
20 972
20 983
21 355
21 372
21 407
21 426
21 511
21 569
21 676
21 695
21 739
21 761
21 908
21 948
21 973
21 984
22 356
22 373
22 408
22 427
22 512
22 570
22 677
22 696
22 740
22 762
22 909
22 949
22 974
22 985
23 357
23 374
23 409
23 428
23 513
23 571
23 678
23 697
23 741
23 763
23 910
23 950
23 975
23 986
24 358
24 375
24 410
24 429
24 514
24 572
24 679
24 698
24 742
24 764
24 911
24 951
24 976
24 987
25 359
25 376
25 411
25 430
25 515
25 573
25 680
25 699
25 743
25 765
25 912
25 952
25 977
25 988
26 360
26 377
26 412
26 431
26 516
26 574
26 681
26 700
26 744
26 766
26 913
26 953
26 978
26 989
27 361
27 378
27 413
27 432
27 517
27 575
27 682
27 701
27 745
27 767
27 914
27 954
27 979
27 990
28 362
28 379
28 414
28 433
28 518
28 576
28 683
28 702
28 746
28 768
28 915
28 955
28 980
28 991
29 342
29 363
29 380
29 415
29 434
29 519
29 577
29 703
29 747
29 769
29 916
29 956
29 981
29 992
30 343
30 364
30 381
30 416
30 435
30 520
30 578
30 704
30 748
30 770
30 917
30 957
30 982
30 993
31 344
31 365
31 382
31 417
31 436
31 521
31 579
31 705
31 749
31 771
31 918
31 958
31 983
31 994
32 345
32 366
32 383
32 418
32 437
32 522
32 580
32 706
32 750
32 772
32 919
32 959
32 984
32 995
33 346
33 367
33 384
33 419
33 438
33 523
33 581
33 707
33 751
33 773
33 920
33 960
33 985
33 996
34 347
34 368
34 385
34 420
34 439
34 524
34 582
34 708
34 752
34 774
34 921
34 961
34 986
34 997
35 348
35 369
35 386
35 421
35 440
35 525
35 583
35 709
35 753
35 775
35 922
35 962
35 987
35 998
36 349
36 370
36 387
36 422
36 441
36 526
36 584
36 710
36 754
36 776
36 923
36 963
36 988
36 999
37 350
37 371
37 388
37 423
37 442
37 527
37 585
37 711
37 755
37 777
37 924
37 964
37 989
37 1000
38 351
38 372
38 389
38 424
38 443
38 528
38 586
38 712
38 756
38 778
38 925
38 965
38 990
38 1001
39 352
39 373
39 390
39 425
39 444
39 529
39 587
39 713
39 757
39 779
39 926
39 966
39 991
39 1002
40 353
40 374
40 391
40 426
40 445
40 530
40 588
40 714
40 758
40 780
40 927
40 967
40 992
40 1003
41 354
41 375
41 392
41 427
41 446
41 531
41 589
41 715
41 759
41 781
41 928
41 968
41 993
41 1004
42 355
42 376
42 393
42 428
42 447
42 532
42 590
42 716
42 760
42 782
42 929
42 969
42 994
42 1005
43 356
43 377
43 394
43 429
43 448
43 533
43 591
43 717
43 761
43 783
43 930
43 970
43 995
43 1006
44 357
44 378
44 395
44 430
44 449
44 534
44 592
44 718
44 762
44 784
44 931
44 971
44 996
44 1007
45 358
45 379
45 396
45 431
45 450
45 535
45 593
45 719
45 763
45 785
45 932
45 972
45 997
45 1008
46 359
46 380
46 397
46 432
46 451
46 536
46 594
46 720
46 764
46 786
46 933
46 973
46 998
46 1009
47 360
47 381
47 398
47 433
47 452
47 537
47 595
47 721
47 765
47 787
47 934
47 974
47 999
47 1010
48 361
48 382
48 399
48 434
48 453
48 538
48 596
48 722
48 766
48 788
48 935
48 975
48 1000
48 1011
49 362
49 383
49 400
49 435
49 454
49 539
49 597
49 723
49 767
49 789
49 936
49 976
49 1001
49 1012
50 363
50 384
50 401
50 436
50 455
50 540
50 598
50 724
50 768
50 790
50 937
50 977
50 1002
50 1013
51 364
51 385
51 402
51 437
51 456
51 541
51 599
51 725
51 769
51 791
51 938
51 978
51 1003
51 1014
52 365
52 386
52 403
52 438
52 457
52 542
52 600
52 726
52 770
52 792
52 939
52 979
52 1004
52 1015
53 366
53 387
53 404
53 439
53 458
53 543
53 601
53 727
53 771
53 793
53 940
53 980
53 1005
53 1016
54 367
54 388
54 405
54 440
54 459
54 544
54 602
54 728
54 772
54 794
54 941
54 981
54 1006
54 1017
55 368
55 389
55 406
55 441
55 460
55 545
55 603
55 729
55 773
55 795
55 942
55 982
55 1007
55 1018
56 369
56 390
56 407
56 442
56 461
56 546
56 604
56 730
56 774
56 796
56 943
56 983
56 1008
56 1019
57 370
57 391
57 408
57 443
57 462
57 547
57 605
57 731
57 775
57 797
57 944
57 984
57 1009
57 1020
58 371
58 392
58 409
58 444
58 463
58 548
58 606
58 732
58 776
58 798
58 945
58 985
58 1010
58 1021
59 372
59 393
59 410
59 445
59 464
59 549
59 607
59 733
59 777
59 799
59 946
59 986
59 1011
59 1022
60 373
60 394
60 411
60 446
60 465
60 550
60 608
60 734
60 778
60 800
60 947
60 987
60 1012
60 1023
61 374
61 395
61 412
61 447
61 466
61 551
61 609
61 735
61 779
61 801
61 948
61 988
61 1013
61 1024
62 375
62 396
62 413
62 448
62 467
62 552
62 610
62 736
62 780
62 802
62 949
62 989
62 1014
62 1025
63 376
63 397
63 414
63 449
63 468
63 553
63 611
63 684
63 737
63 781
63 803
63 950
63 990
63 1015
64 377
64 398
64 415
64 450
64 469
64 554
64 612
64 685
64 738
64 782
64 804
64 951
64 991
64 1016
65 378
65 399
65 416
65 451
65 470
65 555
65 613
65 686
65 739
65 783
65 805
65 952
65 992
65 1017
66 379
66 400
66 417
66 452
66 471
66 556
66 614
66 687
66 740
66 784
66 806
66 953
66 993
66 1018
67 380
67 401
67 418
67 453
67 472
67 557
67 615
67 688
67 741
67 785
67 807
67 954
67 994
67 1019
68 381
68 402
68 419
68 454
68 473
68 558
68 616
68 689
68 742
68 786
68 808
68 955
68 995
68 1020
69 382
69 403
69 420
69 455
69 474
69 559
69 617
69 690
69 743
69 787
69 809
69 956
69 996
69 1021
70 383
70 404
70 421
70 456
70 475
70 560
70 618
70 691
70 744
70 788
70 810
70 957
70 997
70 1022
71 384
71 405
71 422
71 457
71 476
71 561
71 619
71 692
71 745
71 789
71 811
71 958
71 998
71 1023
72 385
72 406
72 423
72 458
72 477
72 562
72 620
72 693
72 746
72 790
72 812
72 959
72 999
72 1024
73 386
73 407
73 424
73 459
73 478
73 563
73 621
73 694
73 747
73 791
73 813
73 960
73 1000
73 1025
74 387
74 408
74 425
74 460
74 479
74 564
74 622
74 684
74 695
74 748
74 792
74 814
74 961
74 1001
75 388
75 409
75 426
75 461
75 480
75 565
75 623
75 685
75 696
75 749
75 793
75 815
75 962
75 1002
76 389
76 410
76 427
76 462
76 481
76 566
76 624
76 686
76 697
76 750
76 794
76 816
76 963
76 1003
77 390
77 411
77 428
77 463
77 482
77 567
77 625
77 687
77 698
77 751
77 795
77 817
77 964
77 1004
78 391
78 412
78 429
78 464
78 483
78 568
78 626
78 688
78 699
78 752
78 796
78 818
78 965
78 1005
79 392
79 413
79 430
79 465
79 484
79 569
79 627
79 689
79 700
79 753
79 797
79 819
79 966
79 1006
80 393
80 414
80 431
80 466
80 485
80 570
80 628
80 690
80 701
80 754
80 798
80 820
80 967
80 1007
81 394
81 415
81 432
81 467
81 486
81 571
81 629
81 691
81 702
81 755
81 799
81 821
81 968
81 1008
82 395
82 416
82 433
82 468
82 487
82 572
82 630
82 692
82 703
82 756
82 800
82 822
82 969
82 1009
83 396
83 417
83 434
83 469
83 488
83 573
83 631
83 693
83 704
83 757
83 801
83 823
83 970
83 1010
84 397
84 418
84 435
84 470
84 489
84 574
84 632
84 694
84 705
84 758
84 802
84 824
84 971
84 1011
85 398
85 419
85 436
85 471
85 490
85 575
85 633
85 695
85 706
85 759
85 803
85 825
85 972
85 1012
86 399
86 420
86 437
86 472
86 491
86 576
86 634
86 696
86 707
86 760
86 804
86 826
86 973
86 1013
87 400
87 421
87 438
87 473
87 492
87 577
87 635
87 697
87 708
87 761
87 805
87 827
87 974
87 1014
88 401
88 422
88 439
88 474
88 493
88 578
88 636
88 698
88 709
88 762
88 806
88 828
88 975
88 1015
89 402
89 423
89 440
89 475
89 494
89 579
89 637
89 699
89 710
89 763
89 807
89 829
89 976
89 1016
90 403
90 424
90 441
90 476
90 495
90 580
90 638
90 700
90 711
90 764
90 808
90 830
90 977
90 1017
91 404
91 425
91 442
91 477
91 496
91 581
91 639
91 701
91 712
91 765
91 809
91 831
91 978
91 1018
92 405
92 426
92 443
92 478
92 497
92 582
92 640
92 702
92 713
92 766
92 810
92 832
92 979
92 1019
93 406
93 427
93 444
93 479
93 498
93 583
93 641
93 703
93 714
93 767
93 811
93 833
93 980
93 1020
94 407
94 428
94 445
94 480
94 499
94 584
94 642
94 704
94 715
94 768
94 812
94 834
94 981
94 1021
95 408
95 429
95 446
95 481
95 500
95 585
95 643
95 705
95 716
95 769
95 813
95 835
95 982
95 1022
96 409
96 430
96 447
96 482
96 501
96 586
96 644
96 706
96 717
96 770
96 814
96 836
96 983
96 1023
97 410
97 431
97 448
97 483
97 502
97 587
97 645
97 707
97 718
97 771
97 815
97 837
97 984
97 1024
98 411
98 432
98 449
98 484
98 503
98 588
98 646
98 708
98 719
98 772
98 816
98 838
98 985
98 1025
99 412
99 433
99 450
99 485
99 504
99 589
99 647
99 684
99 709
99 720
99 773
99 817
99 839
99 986
100 413
100 434
100 451
100 486
100 505
100 590
100 648
100 685
100 710
100 721
100 774
100 818
100 840
100 987
101 414
101 435
101 452
101 487
101 506
101 591
101 649
101 686
101 711
101 722
101 775
101 819
101 841
101 988
102 415
102 436
102 453
102 488
102 507
102 592
102 650
102 687
102 712
102 723
102 776
102 820
102 842
102 989
103 416
103 437
103 454
103 489
103 508
103 593
103 651
103 688
103 713
103 724
103 777
103 821
103 843
103 990
104 417
104 438
104 455
104 490
104 509
104 594
104 652
104 689
104 714
104 725
104 778
104 822
104 844
104 991
105 418
105 439
105 456
105 491
105 510
105 595
105 653
105 690
105 715
105 726
105 779
105 823
105 845
105 992
106 419
106 440
106 457
106 492
106 511
106 596
106 654
106 691
106 716
106 727
106 780
106 824
106 846
106 993
107 420
107 441
107 458
107 493
107 512
107 597
107 655
107 692
107 717
107 728
107 781
107 825
107 847
107 994
108 421
108 442
108 459
108 494
108 513
108 598
108 656
108 693
108 718
108 729
108 782
108 826
108 848
108 995
109 422
109 443
109 460
109 495
109 514
109 599
109 657
109 694
109 719
109 730
109 783
109 827
109 849
109 996
110 423
110 444
110 461
110 496
110 515
110 600
110 658
110 695
110 720
110 731
110 784
110 828
110 850
110 997
111 424
111 445
111 462
111 497
111 516
111 601
111 659
111 696
111 721
111 732
111 785
111 829
111 851
111 998
112 425
112 446
112 463
112 498
112 517
112 602
112 660
112 697
112 722
112 733
112 786
112 830
112 852
112 999
113 426
113 447
113 464
113 499
113 518
113 603
113 661
113 698
113 723
113 734
113 787
113 831
113 853
113 1000
114 427
114 448
114 465
114 500
114 519
114 604
114 662
114 699
114 724
114 735
114 788
114 832
114 854
114 1001
115 428
115 449
115 466
115 501
115 520
115 605
115 663
115 700
115 725
115 736
115 789
115 833
115 855
115 1002
116 429
116 450
116 467
116 502
116 521
116 606
116 664
116 701
116 726
116 737
116 790
116 834
116 856
116 1003
117 430
117 451
117 468
117 503
117 522
117 607
117 665
117 702
117 727
117 738
117 791
117 835
117 857
117 1004
118 431
118 452
118 469
118 504
118 523
118 608
118 666
118 703
118 728
118 739
118 792
118 836
118 858
118 1005
119 432
119 453
119 470
119 505
119 524
119 609
119 667
119 704
119 729
119 740
119 793
119 837
119 859
119 1006
120 433
120 454
120 471
120 506
120 525
120 610
120 668
120 705
120 730
120 741
120 794
120 838
120 860
120 1007
121 434
121 455
121 472
121 507
121 526
121 611
121 669
121 706
121 731
121 742
121 795
121 839
121 861
121 1008
122 435
122 456
122 473
122 508
122 527
122 612
122 670
122 707
122 732
122 743
122 796
122 840
122 862
122 1009
123 436
123 457
123 474
123 509
123 528
123 613
123 671
123 708
123 733
123 744
123 797
123 841
123 863
123 1010
124 437
124 458
124 475
124 510
124 529
124 614
124 672
124 709
124 734
124 745
124 798
124 842
124 864
124 1011
125 438
125 459
125 476
125 511
125 530
125 615
125 673
125 710
125 735
125 746
125 799
125 843
125 865
125 1012
126 439
126 460
126 477
126 512
126 531
126 616
126 674
126 711
126 736
126 747
126 800
126 844
126 866
126 1013
127 440
127 461
127 478
127 513
127 532
127 617
127 675
127 712
127 737
127 748
127 801
127 845
127 867
127 1014
128 441
128 462
128 479
128 514
128 533
128 618
128 676
128 713
128 738
128 749
128 802
128 846
128 868
128 1015
129 442
129 463
129 480
129 515
129 534
129 619
129 677
129 714
129 739
129 750
129 803
129 847
129 869
129 1016
130 443
130 464
130 481
130 516
130 535
130 620
130 678
130 715
130 740
130 751
130 804
130 848
130 870
130 1017
131 444
131 465
131 482
131 517
131 536
131 621
131 679
131 716
131 741
131 752
131 805
131 849
131 871
131 1018
132 445
132 466
132 483
132 518
132 537
132 622
132 680
132 717
132 742
132 753
132 806
132 850
132 872
132 1019
133 446
133 467
133 484
133 519
133 538
133 623
133 681
133 718
133 743
133 754
133 807
133 851
133 873
133 1020
134 447
134 468
134 485
134 520
134 539
134 624
134 682
134 719
134 744
134 755
134 808
134 852
134 874
134 1021
135 448
135 469
135 486
135 521
135 540
135 625
135 683
135 720
135 745
135 756
135 809
135 853
135 875
135 1022
136 342
136 449
136 470
136 487
136 522
136 541
136 626
136 721
136 746
136 757
136 810
136 854
136 876
136 1023
137 343
137 450
137 471
137 488
137 523
137 542
137 627
137 722
137 747
137 758
137 811
137 855
137 877
137 1024
138 344
138 451
138 472
138 489
138 524
138 543
138 628
138 723
138 748
138 759
138 812
138 856
138 878
138 1025
139 345
139 452
139 473
139 490
139 525
139 544
139 629
139 684
139 724
139 749
139 760
139 813
139 857
139 879
140 346
140 453
140 474
140 491
140 526
140 545
140 630
140 685
140 725
140 750
140 761
140 814
140 858
140 880
141 347
141 454
141 475
141 492
141 527
141 546
141 631
141 686
141 726
141 751
141 762
141 815
141 859
141 881
142 348
142 455
142 476
142 493
142 528
142 547
142 632
142 687
142 727
142 752
142 763
142 816
142 860
142 882
143 349
143 456
143 477
143 494
143 529
143 548
143 633
143 688
143 728
143 753
143 764
143 817
143 861
143 883
144 350
144 457
144 478
144 495
144 530
144 549
144 634
144 689
144 729
144 754
144 765
144 818
144 862
144 884
145 351
145 458
145 479
145 496
145 531
145 550
145 635
145 690
145 730
145 755
145 766
145 819
145 863
145 885
146 352
146 459
146 480
146 497
146 532
146 551
146 636
146 691
146 731
146 756
146 767
146 820
146 864
146 886
147 353
147 460
147 481
147 498
147 533
147 552
147 637
147 692
147 732
147 757
147 768
147 821
147 865
147 887
148 354
148 461
148 482
148 499
148 534
148 553
148 638
148 693
148 733
148 758
148 769
148 822
148 866
148 888
149 355
149 462
149 483
149 500
149 535
149 554
149 639
149 694
149 734
149 759
149 770
149 823
149 867
149 889
150 356
150 463
150 484
150 501
150 536
150 555
150 640
150 695
150 735
150 760
150 771
150 824
150 868
150 890
151 357
151 464
151 485
151 502
151 537
151 556
151 641
151 696
151 736
151 761
151 772
151 825
151 869
151 891
152 358
152 465
152 486
152 503
152 538
152 557
152 642
152 697
152 737
152 762
152 773
152 826
152 870
152 892
153 359
153 466
153 487
153 504
153 539
153 558
153 643
153 698
153 738
153 763
153 774
153 827
153 871
153 893
154 360
154 467
154 488
154 505
154 540
154 559
154 644
154 699
154 739
154 764
154 775
154 828
154 872
154 894
155 361
155 468
155 489
155 506
155 541
155 560
155 645
155 700
155 740
155 765
155 776
155 829
155 873
155 895
156 362
156 469
156 490
156 507
156 542
156 561
156 646
156 701
156 741
156 766
156 777
156 830
156 874
156 896
157 363
157 470
157 491
157 508
157 543
157 562
157 647
157 702
157 742
157 767
157 778
157 831
157 875
157 897
158 364
158 471
158 492
158 509
158 544
158 563
158 648
158 703
158 743
158 768
158 779
158 832
158 876
158 898
159 365
159 472
159 493
159 510
159 545
159 564
159 649
159 704
159 744
159 769
159 780
159 833
159 877
159 899
160 366
160 473
160 494
160 511
160 546
160 565
160 650
160 705
160 745
160 770
160 781
160 834
160 878
160 900
161 367
161 474
161 495
161 512
161 547
161 566
161 651
161 706
161 746
161 771
161 782
161 835
161 879
161 901
162 368
162 475
162 496
162 513
162 548
162 567
162 652
162 707
162 747
162 772
162 783
162 836
162 880
162 902
163 369
163 476
163 497
163 514
163 549
163 568
163 653
163 708
163 748
163 773
163 784
163 837
163 881
163 903
164 370
164 477
164 498
164 515
164 550
164 569
164 654
164 709
164 749
164 774
164 785
164 838
164 882
164 904
165 371
165 478
165 499
165 516
165 551
165 570
165 655
165 710
165 750
165 775
165 786
165 839
165 883
165 905
166 372
166 479
166 500
166 517
166 552
166 571
166 656
166 711
166 751
166 776
166 787
166 840
166 884
166 906
167 373
167 480
167 501
167 518
167 553
167 572
167 657
167 712
167 752
167 777
167 788
167 841
167 885
167 907
168 374
168 481
168 502
168 519
168 554
168 573
168 658
168 713
168 753
168 778
168 789
168 842
168 886
168 908
169 375
169 482
169 503
169 520
169 555
169 574
169 659
169 714
169 754
169 779
169 790
169 843
169 887
169 909
170 376
170 483
170 504
170 521
170 556
170 575
170 660
170 715
170 755
170 780
170 791
170 844
170 888
170 910
171 377
171 484
171 505
171 522
171 557
171 576
171 661
171 716
171 756
171 781
171 792
171 845
171 889
171 911
172 378
172 485
172 506
172 523
172 558
172 577
172 662
172 717
172 757
172 782
172 793
172 846
172 890
172 912
173 379
173 486
173 507
173 524
173 559
173 578
173 663
173 718
173 758
173 783
173 794
173 847
173 891
173 913
174 380
174 487
174 508
174 525
174 560
174 579
174 664
174 719
174 759
174 784
174 795
174 848
174 892
174 914
175 381
175 488
175 509
175 526
175 561
175 580
175 665
175 720
175 760
175 785
175 796
175 849
175 893
175 915
176 382
176 489
176 510
176 527
176 562
176 581
176 666
176 721
176 761
176 786
176 797
176 850
176 894
176 916
177 383
177 490
177 511
177 528
177 563
177 582
177 667
177 722
177 762
177 787
177 798
177 851
177 895
177 917
178 384
178 491
178 512
178 529
178 564
178 583
178 668
178 723
178 763
178 788
178 799
178 852
178 896
178 918
179 385
179 492
179 513
179 530
179 565
179 584
179 669
179 724
179 764
179 789
179 800
179 853
179 897
179 919
180 386
180 493
180 514
180 531
180 566
180 585
180 670
180 725
180 765
180 790
180 801
180 854
180 898
180 920
181 387
181 494
181 515
181 532
181 567
181 586
181 671
181 726
181 766
181 791
181 802
181 855
181 899
181 921
182 388
182 495
182 516
182 533
182 568
182 587
182 672
182 727
182 767
182 792
182 803
182 856
182 900
182 922
183 389
183 496
183 517
183 534
183 569
183 588
183 673
183 728
183 768
183 793
183 804
183 857
183 901
183 923
184 390
184 497
184 518
184 535
184 570
184 589
184 674
184 729
184 769
184 794
184 805
184 858
184 902
184 924
185 391
185 498
185 519
185 536
185 571
185 590
185 675
185 730
185 770
185 795
185 806
185 859
185 903
185 925
186 392
186 499
186 520
186 537
186 572
186 591
186 676
186 731
186 771
186 796
186 807
186 860
186 904
186 926
187 393
187 500
187 521
187 538
187 573
187 592
187 677
187 732
187 772
187 797
187 808
187 861
187 905
187 927
188 394
188 501
188 522
188 539
188 574
188 593
188 678
188 733
188 773
188 798
188 809
188 862
188 906
188 928
189 395
189 502
189 523
189 540
189 575
189 594
189 679
189 734
189 774
189 799
189 810
189 863
189 907
189 929
190 396
190 503
190 524
190 541
190 576
190 595
190 680
190 735
190 775
190 800
190 811
190 864
190 908
190 930
191 397
191 504
191 525
191 542
191 577
191 596
191 681
191 736
191 776
191 801
191 812
191 865
191 909
191 931
192 398
192 505
192 526
192 543
192 578
192 597
192 682
192 737
192 777
192 802
192 813
192 866
192 910
192 932
193 399
193 506
193 527
193 544
193 579
193 598
193 683
193 738
193 778
193 803
193 814
193 867
193 911
193 933
194 342
194 400
194 507
194 528
194 545
194 580
194 599
194 739
194 779
194 804
194 815
194 868
194 912
194 934
195 343
195 401
195 508
195 529
195 546
195 581
195 600
195 740
195 780
195 805
195 816
195 869
195 913
195 935
196 344
196 402
196 509
196 530
196 547
196 582
196 601
196 741
196 781
196 806
196 817
196 870
196 914
196 936
197 345
197 403
197 510
197 531
197 548
197 583
197 602
197 742
197 782
197 807
197 818
197 871
197 915
197 937
198 346
198 404
198 511
198 532
198 549
198 584
198 603
198 743
198 783
198 808
198 819
198 872
198 916
198 938
199 347
199 405
199 512
199 533
199 550
199 585
199 604
199 744
199 784
199 809
199 820
199 873
199 917
199 939
200 348
200 406
200 513
200 534
200 551
200 586
200 605
200 745
200 785
200 810
200 821
200 874
200 918
200 940
201 349
201 407
201 514
201 535
201 552
201 587
201 606
201 746
201 786
201 811
201 822
201 875
201 919
201 941
202 350
202 408
202 515
202 536
202 553
202 588
202 607
202 747
202 787
202 812
202 823
202 876
202 920
202 942
203 351
203 409
203 516
203 537
203 554
203 589
203 608
203 748
203 788
203 813
203 824
203 877
203 921
203 943
204 352
204 410
204 517
204 538
204 555
204 590
204 609
204 749
204 789
204 814
204 825
204 878
204 922
204 944
205 353
205 411
205 518
205 539
205 556
205 591
205 610
205 750
205 790
205 815
205 826
205 879
205 923
205 945
206 354
206 412
206 519
206 540
206 557
206 592
206 611
206 751
206 791
206 816
206 827
206 880
206 924
206 946
207 355
207 413
207 520
207 541
207 558
207 593
207 612
207 752
207 792
207 817
207 828
207 881
207 925
207 947
208 356
208 414
208 521
208 542
208 559
208 594
208 613
208 753
208 793
208 818
208 829
208 882
208 926
208 948
209 357
209 415
209 522
209 543
209 560
209 595
209 614
209 754
209 794
209 819
209 830
209 883
209 927
209 949
210 358
210 416
210 523
210 544
210 561
210 596
210 615
210 755
210 795
210 820
210 831
210 884
210 928
210 950
211 359
211 417
211 524
211 545
211 562
211 597
211 616
211 756
211 796
211 821
211 832
211 885
211 929
211 951
212 360
212 418
212 525
212 546
212 563
212 598
212 617
212 757
212 797
212 822
212 833
212 886
212 930
212 952
213 361
213 419
213 526
213 547
213 564
213 599
213 618
213 758
213 798
213 823
213 834
213 887
213 931
213 953
214 362
214 420
214 527
214 548
214 565
214 600
214 619
214 759
214 799
214 824
214 835
214 888
214 932
214 954
215 363
215 421
215 528
215 549
215 566
215 601
215 620
215 760
215 800
215 825
215 836
215 889
215 933
215 955
216 364
216 422
216 529
216 550
216 567
216 602
216 621
216 761
216 801
216 826
216 837
216 890
216 934
216 956
217 365
217 423
217 530
217 551
217 568
217 603
217 622
217 762
217 802
217 827
217 838
217 891
217 935
217 957
218 366
218 424
218 531
218 552
218 569
218 604
218 623
218 763
218 803
218 828
218 839
218 892
218 936
218 958
219 367
219 425
219 532
219 553
219 570
219 605
219 624
219 764
219 804
219 829
219 840
219 893
219 937
219 959
220 368
220 426
220 533
220 554
220 571
220 606
220 625
220 765
220 805
220 830
220 841
220 894
220 938
220 960
221 369
221 427
221 534
221 555
221 572
221 607
221 626
221 766
221 806
221 831
221 842
221 895
221 939
221 961
222 370
222 428
222 535
222 556
222 573
222 608
222 627
222 767
222 807
222 832
222 843
222 896
222 940
222 962
223 371
223 429
223 536
223 557
223 574
223 609
223 628
223 768
223 808
223 833
223 844
223 897
223 941
223 963
224 372
224 430
224 537
224 558
224 575
224 610
224 629
224 769
224 809
224 834
224 845
224 898
224 942
224 964
225 373
225 431
225 538
225 559
225 576
225 611
225 630
225 770
225 810
225 835
225 846
225 899
225 943
225 965
226 374
226 432
226 539
226 560
226 577
226 612
226 631
226 771
226 811
226 836
226 847
226 900
226 944
226 966
227 375
227 433
227 540
227 561
227 578
227 613
227 632
227 772
227 812
227 837
227 848
227 901
227 945
227 967
228 376
228 434
228 541
228 562
228 579
228 614
228 633
228 773
228 813
228 838
228 849
228 902
228 946
228 968
229 377
229 435
229 542
229 563
229 580
229 615
229 634
229 774
229 814
229 839
229 850
229 903
229 947
229 969
230 378
230 436
230 543
230 564
230 581
230 616
230 635
230 775
230 815
230 840
230 851
230 904
230 948
230 970
231 379
231 437
231 544
231 565
231 582
231 617
231 636
231 776
231 816
231 841
231 852
231 905
231 949
231 971
232 380
232 438
232 545
232 566
232 583
232 618
232 637
232 777
232 817
232 842
232 853
232 906
232 950
232 972
233 381
233 439
233 546
233 567
233 584
233 619
233 638
233 778
233 818
233 843
233 854
233 907
233 951
233 973
234 382
234 440
234 547
234 568
234 585
234 620
234 639
234 779
234 819
234 844
234 855
234 908
234 952
234 974
235 383
235 441
235 548
235 569
235 586
235 621
235 640
235 780
235 820
235 845
235 856
235 909
235 953
235 975
236 384
236 442
236 549
236 570
236 587
236 622
236 641
236 781
236 821
236 846
236 857
236 910
236 954
236 976
237 385
237 443
237 550
237 571
237 588
237 623
237 642
237 782
237 822
237 847
237 858
237 911
237 955
237 977
238 386
238 444
238 551
238 572
238 589
238 624
238 643
238 783
238 823
238 848
238 859
238 912
238 956
238 978
239 387
239 445
239 552
239 573
239 590
239 625
239 644
239 784
239 824
239 849
239 860
239 913
239 957
239 979
240 388
240 446
240 553
240 574
240 591
240 626
240 645
240 785
240 825
240 850
240 861
240 914
240 958
240 980
241 389
241 447
241 554
241 575
241 592
241 627
241 646
241 786
241 826
241 851
241 862
241 915
241 959
241 981
242 390
242 448
242 555
242 576
242 593
242 628
242 647
242 787
242 827
242 852
242 863
242 916
242 960
242 982
243 391
243 449
243 556
243 577
243 594
243 629
243 648
243 788
243 828
243 853
243 864
243 917
243 961
243 983
244 392
244 450
244 557
244 578
244 595
244 630
244 649
244 789
244 829
244 854
244 865
244 918
244 962
244 984
245 393
245 451
245 558
245 579
245 596
245 631
245 650
245 790
245 830
245 855
245 866
245 919
245 963
245 985
246 394
246 452
246 559
246 580
246 597
246 632
246 651
246 791
246 831
246 856
246 867
246 920
246 964
246 986
247 395
247 453
247 560
247 581
247 598
247 633
247 652
247 792
247 832
247 857
247 868
247 921
247 965
247 987
248 396
248 454
248 561
248 582
248 599
248 634
248 653
248 793
248 833
248 858
248 869
248 922
248 966
248 988
249 397
249 455
249 562
249 583
249 600
249 635
249 654
249 794
249 834
249 859
249 870
249 923
249 967
249 989
250 398
250 456
250 563
250 584
250 601
250 636
250 655
250 795
250 835
250 860
250 871
250 924
250 968
250 990
251 399
251 457
251 564
251 585
251 602
251 637
251 656
251 796
251 836
251 861
251 872
251 925
251 969
251 991
252 400
252 458
252 565
252 586
252 603
252 638
252 657
252 797
252 837
252 862
252 873
252 926
252 970
252 992
253 401
253 459
253 566
253 587
253 604
253 639
253 658
253 798
253 838
253 863
253 874
253 927
253 971
253 993
254 402
254 460
254 567
254 588
254 605
254 640
254 659
254 799
254 839
254 864
254 875
254 928
254 972
254 994
255 403
255 461
255 568
255 589
255 606
255 641
255 660
255 800
255 840
255 865
255 876
255 929
255 973
255 995
256 404
256 462
256 569
256 590
256 607
256 642
256 661
256 801
256 841
256 866
256 877
256 930
256 974
256 996
257 405
257 463
257 570
257 591
257 608
257 643
257 662
257 802
257 842
257 867
257 878
257 931
257 975
257 997
258 406
258 464
258 571
258 592
258 609
258 644
258 663
258 803
258 843
258 868
258 879
258 932
258 976
258 998
259 407
259 465
259 572
259 593
259 610
259 645
259 664
259 804
259 844
259 869
259 880
259 933
259 977
259 999
260 408
260 466
260 573
260 594
260 611
260 646
260 665
260 805
260 845
260 870
260 881
260 934
260 978
260 1000
261 409
261 467
261 574
261 595
261 612
261 647
261 666
261 806
261 846
261 871
261 882
261 935
261 979
261 1001
262 410
262 468
262 575
262 596
262 613
262 648
262 667
262 807
262 847
262 872
262 883
262 936
262 980
262 1002
263 411
263 469
263 576
263 597
263 614
263 649
263 668
263 808
263 848
263 873
263 884
263 937
263 981
263 1003
264 412
264 470
264 577
264 598
264 615
264 650
264 669
264 809
264 849
264 874
264 885
264 938
264 982
264 1004
265 413
265 471
265 578
265 599
265 616
265 651
265 670
265 810
265 850
265 875
265 886
265 939
265 983
265 1005
266 414
266 472
266 579
266 600
266 617
266 652
266 671
266 811
266 851
266 876
266 887
266 940
266 984
266 1006
267 415
267 473
267 580
267 601
267 618
267 653
267 672
267 812
267 852
267 877
267 888
267 941
267 985
267 1007
268 416
268 474
268 581
268 602
268 619
268 654
268 673
268 813
268 853
268 878
268 889
268 942
268 986
268 1008
269 417
269 475
269 582
269 603
269 620
269 655
269 674
269 814
269 854
269 879
269 890
269 943
269 987
269 1009
270 418
270 476
270 583
270 604
270 621
270 656
270 675
270 815
270 855
270 880
270 891
270 944
270 988
270 1010
271 419
271 477
271 584
271 605
271 622
271 657
271 676
271 816
271 856
271 881
271 892
271 945
271 989
271 1011
272 420
272 478
272 585
272 606
272 623
272 658
272 677
272 817
272 857
272 882
272 893
272 946
272 990
272 1012
273 421
273 479
273 586
273 607
273 624
273 659
273 678
273 818
273 858
273 883
273 894
273 947
273 991
273 1013
274 422
274 480
274 587
274 608
274 625
274 660
274 679
274 819
274 859
274 884
274 895
274 948
274 992
274 1014
275 423
275 481
275 588
275 609
275 626
275 661
275 680
275 820
275 860
275 885
275 896
275 949
275 993
275 1015
276 424
276 482
276 589
276 610
276 627
276 662
276 681
276 821
276 861
276 886
276 897
276 950
276 994
276 1016
277 425
277 483
277 590
277 611
277 628
277 663
277 682
277 822
277 862
277 887
277 898
277 951
277 995
277 1017
278 426
278 484
278 591
278 612
278 629
278 664
278 683
278 823
278 863
278 888
278 899
278 952
278 996
278 1018
279 342
279 427
279 485
279 592
279 613
279 630
279 665
279 824
279 864
279 889
279 900
279 953
279 997
279 1019
280 343
280 428
280 486
280 593
280 614
280 631
280 666
280 825
280 865
280 890
280 901
280 954
280 998
280 1020
281 344
281 429
281 487
281 594
281 615
281 632
281 667
281 826
281 866
281 891
281 902
281 955
281 999
281 1021
282 345
282 430
282 488
282 595
282 616
282 633
282 668
282 827
282 867
282 892
282 903
282 956
282 1000
282 1022
283 346
283 431
283 489
283 596
283 617
283 634
283 669
283 828
283 868
283 893
283 904
283 957
283 1001
283 1023
284 347
284 432
284 490
284 597
284 618
284 635
284 670
284 829
284 869
284 894
284 905
284 958
284 1002
284 1024
285 348
285 433
285 491
285 598
285 619
285 636
285 671
285 830
285 870
285 895
285 906
285 959
285 1003
285 1025
286 349
286 434
286 492
286 599
286 620
286 637
286 672
286 684
286 831
286 871
286 896
286 907
286 960
286 1004
287 350
287 435
287 493
287 600
287 621
287 638
287 673
287 685
287 832
287 872
287 897
287 908
287 961
287 1005
288 351
288 436
288 494
288 601
288 622
288 639
288 674
288 686
288 833
288 873
288 898
288 909
288 962
288 1006
289 352
289 437
289 495
289 602
289 623
289 640
289 675
289 687
289 834
289 874
289 899
289 910
289 963
289 1007
290 353
290 438
290 496
290 603
290 624
290 641
290 676
290 688
290 835
290 875
290 900
290 911
290 964
290 1008
291 354
291 439
291 497
291 604
291 625
291 642
291 677
291 689
291 836
291 876
291 901
291 912
291 965
291 1009
292 355
292 440
292 498
292 605
292 626
292 643
292 678
292 690
292 837
292 877
292 902
292 913
292 966
292 1010
293 356
293 441
293 499
293 606
293 627
293 644
293 679
293 691
293 838
293 878
293 903
293 914
293 967
293 1011
294 357
294 442
294 500
294 607
294 628
294 645
294 680
294 692
294 839
294 879
294 904
294 915
294 968
294 1012
295 358
295 443
295 501
295 608
295 629
295 646
295 681
295 693
295 840
295 880
295 905
295 916
295 969
295 1013
296 359
296 444
296 502
296 609
296 630
296 647
296 682
296 694
296 841
296 881
296 906
296 917
296 970
296 1014
297 360
297 445
297 503
297 610
297 631
297 648
297 683
297 695
297 842
297 882
297 907
297 918
297 971
297 1015
298 342
298 361
298 446
298 504
298 611
298 632
298 649
298 696
298 843
298 883
298 908
298 919
298 972
298 1016
299 343
299 362
299 447
299 505
299 612
299 633
299 650
299 697
299 844
299 884
299 909
299 920
299 973
299 1017
300 344
300 363
300 448
300 506
300 613
300 634
300 651
300 698
300 845
300 885
300 910
300 921
300 974
300 1018
301 345
301 364
301 449
301 507
301 614
301 635
301 652
301 699
301 846
301 886
301 911
301 922
301 975
301 1019
302 346
302 365
302 450
302 508
302 615
302 636
302 653
302 700
302 847
302 887
302 912
302 923
302 976
302 1020
303 347
303 366
303 451
303 509
303 616
303 637
303 654
303 701
303 848
303 888
303 913
303 924
303 977
303 1021
304 348
304 367
304 452
304 510
304 617
304 638
304 655
304 702
304 849
304 889
304 914
304 925
304 978
304 1022
305 349
305 368
305 453
305 511
305 618
305 639
305 656
305 703
305 850
305 890
305 915
305 926
305 979
305 1023
306 350
306 369
306 454
306 512
306 619
306 640
306 657
306 704
306 851
306 891
306 916
306 927
306 980
306 1024
307 351
307 370
307 455
307 513
307 620
307 641
307 658
307 705
307 852
307 892
307 917
307 928
307 981
307 1025
308 352
308 371
308 456
308 514
308 621
308 642
308 659
308 684
308 706
308 853
308 893
308 918
308 929
308 982
309 353
309 372
309 457
309 515
309 622
309 643
309 660
309 685
309 707
309 854
309 894
309 919
309 930
309 983
310 354
310 373
310 458
310 516
310 623
310 644
310 661
310 686
310 708
310 855
310 895
310 920
310 931
310 984
311 355
311 374
311 459
311 517
311 624
311 645
311 662
311 687
311 709
311 856
311 896
311 921
311 932
311 985
312 356
312 375
312 460
312 518
312 625
312 646
312 663
312 688
312 710
312 857
312 897
312 922
312 933
312 986
313 357
313 376
313 461
313 519
313 626
313 647
313 664
313 689
313 711
313 858
313 898
313 923
313 934
313 987
314 358
314 377
314 462
314 520
314 627
314 648
314 665
314 690
314 712
314 859
314 899
314 924
314 935
314 988
315 359
315 378
315 463
315 521
315 628
315 649
315 666
315 691
315 713
315 860
315 900
315 925
315 936
315 989
316 360
316 379
316 464
316 522
316 629
316 650
316 667
316 692
316 714
316 861
316 901
316 926
316 937
316 990
317 361
317 380
317 465
317 523
317 630
317 651
317 668
317 693
317 715
317 862
317 902
317 927
317 938
317 991
318 362
318 381
318 466
318 524
318 631
318 652
318 669
318 694
318 716
318 863
318 903
318 928
318 939
318 992
319 363
319 382
319 467
319 525
319 632
319 653
319 670
319 695
319 717
319 864
319 904
319 929
319 940
319 993
320 364
320 383
320 468
320 526
320 633
320 654
320 671
320 696
320 718
320 865
320 905
320 930
320 941
320 994
321 365
321 384
321 469
321 527
321 634
321 655
321 672
321 697
321 719
321 866
321 906
321 931
321 942
321 995
322 366
322 385
322 470
322 528
322 635
322 656
322 673
322 698
322 720
322 867
322 907
322 932
322 943
322 996
323 367
323 386
323 471
323 529
323 636
323 657
323 674
323 699
323 721
323 868
323 908
323 933
323 944
323 997
324 368
324 387
324 472
324 530
324 637
324 658
324 675
324 700
324 722
324 869
324 909
324 934
324 945
324 998
325 369
325 388
325 473
325 531
325 638
325 659
325 676
325 701
325 723
325 870
325 910
325 935
325 946
325 999
326 370
326 389
326 474
326 532
326 639
326 660
326 677
326 702
326 724
326 871
326 911
326 936
326 947
326 1000
327 371
327 390
327 475
327 533
327 640
327 661
327 678
327 703
327 725
327 872
327 912
327 937
327 948
327 1001
328 372
328 391
328 476
328 534
328 641
328 662
328 679
328 704
328 726
328 873
328 913
328 938
328 949
328 1002
329 373
329 392
329 477
329 535
329 642
329 663
329 680
329 705
329 727
329 874
329 914
329 939
329 950
329 1003
330 374
330 393
330 478
330 536
330 643
330 664
330 681
330 706
330 728
330 875
330 915
330 940
330 951
330 1004
331 375
331 394
331 479
331 537
331 644
331 665
331 682
331 707
331 729
331 876
331 916
331 941
331 952
331 1005
332 376
332 395
332 480
332 538
332 645
332 666
332 683
332 708
332 730
332 877
332 917
332 942
332 953
332 1006
333 342
333 377
333 396
333 481
333 539
333 646
333 667
333 709
333 731
333 878
333 918
333 943
333 954
333 1007
334 343
334 378
334 397
334 482
334 540
334 647
334 668
334 710
334 732
334 879
334 919
334 944
334 955
334 1008
335 344
335 379
335 398
335 483
335 541
335 648
335 669
335 711
335 733
335 880
335 920
335 945
335 956
335 1009
336 345
336 380
336 399
336 484
336 542
336 649
336 670
336 712
336 734
336 881
336 921
336 946
336 957
336 1010
337 346
337 381
337 400
337 485
337 543
337 650
337 671
337 713
337 735
337 882
337 922
337 947
337 958
337 1011
338 347
338 382
338 401
338 486
338 544
338 651
338 672
338 714
338 736
338 883
338 923
338 948
338 959
338 1012
339 348
339 383
339 402
339 487
339 545
339 652
339 673
339 715
339 737
339 884
339 924
339 949
339 960
339 1013
340 349
340 384
340 403
340 488
340 546
340 653
340 674
340 716
340 738
340 885
340 925
340 950
340 961
340 1014
341 350
341 385
341 404
341 489
341 547
341 654
341 675
341 717
341 739
341 886
341 926
341 951
341 962
341 1015
342 693
342 754
342 783
342 788
342 860
342 973
342 976
343 694
343 755
343 784
343 789
343 861
343 974
343 977
344 695
344 756
344 785
344 790
344 862
344 975
344 978
345 696
345 757
345 786
345 791
345 863
345 976
345 979
346 697
346 758
346 787
346 792
346 864
346 977
346 980
347 698
347 759
347 788
347 793
347 865
347 978
347 981
348 699
348 760
348 789
348 794
348 866
348 979
348 982
349 700
349 761
349 790
349 795
349 867
349 980
349 983
350 701
350 762
350 791
350 796
350 868
350 981
350 984
351 702
351 763
351 792
351 797
351 869
351 982
351 985
352 703
352 764
352 793
352 798
352 870
352 983
352 986
353 704
353 765
353 794
353 799
353 871
353 984
353 987
354 705
354 766
354 795
354 800
354 872
354 985
354 988
355 706
355 767
355 796
355 801
355 873
355 986
355 989
356 707
356 768
356 797
356 802
356 874
356 987
356 990
357 708
357 769
357 798
357 803
357 875
357 988
357 991
358 709
358 770
358 799
358 804
358 876
358 989
358 992
359 710
359 771
359 800
359 805
359 877
359 990
359 993
360 711
360 772
360 801
360 806
360 878
360 991
360 994
361 712
361 773
361 802
361 807
361 879
361 992
361 995
362 713
362 774
362 803
362 808
362 880
362 993
362 996
363 714
363 775
363 804
363 809
363 881
363 994
363 997
364 715
364 776
364 805
364 810
364 882
364 995
364 998
365 716
365 777
365 806
365 811
365 883
365 996
365 999
366 717
366 778
366 807
366 812
366 884
366 997
366 1000
367 718
367 779
367 808
367 813
367 885
367 998
367 1001
368 719
368 780
368 809
368 814
368 886
368 999
368 1002
369 720
369 781
369 810
369 815
369 887
369 1000
369 1003
370 721
370 782
370 811
370 816
370 888
370 1001
370 1004
371 722
371 783
371 812
371 817
371 889
371 1002
371 1005
372 723
372 784
372 813
372 818
372 890
372 1003
372 1006
373 724
373 785
373 814
373 819
373 891
373 1004
373 1007
374 725
374 786
374 815
374 820
374 892
374 1005
374 1008
375 726
375 787
375 816
375 821
375 893
375 1006
375 1009
376 727
376 788
376 817
376 822
376 894
376 1007
376 1010
377 728
377 789
377 818
377 823
377 895
377 1008
377 1011
378 729
378 790
378 819
378 824
378 896
378 1009
378 1012
379 730
379 791
379 820
379 825
379 897
379 1010
379 1013
380 731
380 792
380 821
380 826
380 898
380 1011
380 1014
381 732
381 793
381 822
381 827
381 899
381 1012
381 1015
382 733
382 794
382 823
382 828
382 900
382 1013
382 1016
383 734
383 795
383 824
383 829
383 901
383 1014
383 1017
384 735
384 796
384 825
384 830
384 902
384 1015
384 1018
385 736
385 797
385 826
385 831
385 903
385 1016
385 1019
386 737
386 798
386 827
386 832
386 904
386 1017
386 1020
387 738
387 799
387 828
387 833
387 905
387 1018
387 1021
388 739
388 800
388 829
388 834
388 906
388 1019
388 1022
389 740
389 801
389 830
389 835
389 907
389 1020
389 1023
390 741
390 802
390 831
390 836
390 908
390 1021
390 1024
391 742
391 803
391 832
391 837
391 909
391 1022
391 1025
392 684
392 743
392 804
392 833
392 838
392 910
392 1023
393 685
393 744
393 805
393 834
393 839
393 911
393 1024
394 686
394 745
394 806
394 835
394 840
394 912
394 1025
395 684
395 687
395 746
395 807
395 836
395 841
395 913
396 685
396 688
396 747
396 808
396 837
396 842
396 914
397 686
397 689
397 748
397 809
397 838
397 843
397 915
398 687
398 690
398 749
398 810
398 839
398 844
398 916
399 688
399 691
399 750
399 811
399 840
399 845
399 917
400 689
400 692
400 751
400 812
400 841
400 846
400 918
401 690
401 693
401 752
401 813
401 842
401 847
401 919
402 691
402 694
402 753
402 814
402 843
402 848
402 920
403 692
403 695
403 754
403 815
403 844
403 849
403 921
404 693
404 696
404 755
404 816
404 845
404 850
404 922
405 694
405 697
405 756
405 817
405 846
405 851
405 923
406 695
406 698
406 757
406 818
406 847
406 852
406 924
407 696
407 699
407 758
407 819
407 848
407 853
407 925
408 697
408 700
408 759
408 820
408 849
408 854
408 926
409 698
409 701
409 760
409 821
409 850
409 855
409 927
410 699
410 702
410 761
410 822
410 851
410 856
410 928
411 700
411 703
411 762
411 823
411 852
411 857
411 929
412 701
412 704
412 763
412 824
412 853
412 858
412 930
413 702
413 705
413 764
413 825
413 854
413 859
413 931
414 703
414 706
414 765
414 826
414 855
414 860
414 932
415 704
415 707
415 766
415 827
415 856
415 861
415 933
416 705
416 708
416 767
416 828
416 857
416 862
416 934
417 706
417 709
417 768
417 829
417 858
417 863
417 935
418 707
418 710
418 769
418 830
418 859
418 864
418 936
419 708
419 711
419 770
419 831
419 860
419 865
419 937
420 709
420 712
420 771
420 832
420 861
420 866
420 938
421 710
421 713
421 772
421 833
421 862
421 867
421 939
422 711
422 714
422 773
422 834
422 863
422 868
422 940
423 712
423 715
423 774
423 835
423 864
423 869
423 941
424 713
424 716
424 775
424 836
424 865
424 870
424 942
425 714
425 717
425 776
425 837
425 866
425 871
425 943
426 715
426 718
426 777
426 838
426 867
426 872
426 944
427 716
427 719
427 778
427 839
427 868
427 873
427 945
428 717
428 720
428 779
428 840
428 869
428 874
428 946
429 718
429 721
429 780
429 841
429 870
429 875
429 947
430 719
430 722
430 781
430 842
430 871
430 876
430 948
431 720
431 723
431 782
431 843
431 872
431 877
431 949
432 721
432 724
432 783
432 844
432 873
432 878
432 950
433 722
433 725
433 784
433 845
433 874
433 879
433 951
434 723
434 726
434 785
434 846
434 875
434 880
434 952
435 724
435 727
435 786
435 847
435 876
435 881
435 953
436 725
436 728
436 787
436 848
436 877
436 882
436 954
437 726
437 729
437 788
437 849
437 878
437 883
437 955
438 727
438 730
438 789
438 850
438 879
438 884
438 956
439 728
439 731
439 790
439 851
439 880
439 885
439 957
440 729
440 732
440 791
440 852
440 881
440 886
440 958
441 730
441 733
441 792
441 853
441 882
441 887
441 959
442 731
442 734
442 793
442 854
442 883
442 888
442 960
443 732
443 735
443 794
443 855
443 884
443 889
443 961
444 733
444 736
444 795
444 856
444 885
444 890
444 962
445 734
445 737
445 796
445 857
445 886
445 891
445 963
446 735
446 738
446 797
446 858
446 887
446 892
446 964
447 736
447 739
447 798
447 859
447 888
447 893
447 965
448 737
448 740
448 799
448 860
448 889
448 894
448 966
449 738
449 741
449 800
449 861
449 890
449 895
449 967
450 739
450 742
450 801
450 862
450 891
450 896
450 968
451 740
451 743
451 802
451 863
451 892
451 897
451 969
452 741
452 744
452 803
452 864
452 893
452 898
452 970
453 742
453 745
453 804
453 865
453 894
453 899
453 971
454 743
454 746
454 805
454 866
454 895
454 900
454 972
455 744
455 747
455 806
455 867
455 896
455 901
455 973
456 745
456 748
456 807
456 868
456 897
456 902
456 974
457 746
457 749
457 808
457 869
457 898
457 903
457 975
458 747
458 750
458 809
458 870
458 899
458 904
458 976
459 748
459 751
459 810
459 871
459 900
459 905
459 977
460 749
460 752
460 811
460 872
460 901
460 906
460 978
461 750
461 753
461 812
461 873
461 902
461 907
461 979
462 751
462 754
462 813
462 874
462 903
462 908
462 980
463 752
463 755
463 814
463 875
463 904
463 909
463 981
464 753
464 756
464 815
464 876
464 905
464 910
464 982
465 754
465 757
465 816
465 877
465 906
465 911
465 983
466 755
466 758
466 817
466 878
466 907
466 912
466 984
467 756
467 759
467 818
467 879
467 908
467 913
467 985
468 757
468 760
468 819
468 880
468 909
468 914
468 986
469 758
469 761
469 820
469 881
469 910
469 915
469 987
470 759
470 762
470 821
470 882
470 911
470 916
470 988
471 760
471 763
471 822
471 883
471 912
471 917
471 989
472 761
472 764
472 823
472 884
472 913
472 918
472 990
473 762
473 765
473 824
473 885
473 914
473 919
473 991
474 763
474 766
474 825
474 886
474 915
474 920
474 992
475 764
475 767
475 826
475 887
475 916
475 921
475 993
476 765
476 768
476 827
476 888
476 917
476 922
476 994
477 766
477 769
477 828
477 889
477 918
477 923
477 995
478 767
478 770
478 829
478 890
478 919
478 924
478 996
479 768
479 771
479 830
479 891
479 920
479 925
479 997
480 769
480 772
480 831
480 892
480 921
480 926
480 998
481 770
481 773
481 832
481 893
481 922
481 927
481 999
482 771
482 774
482 833
482 894
482 923
482 928
482 1000
483 772
483 775
483 834
483 895
483 924
483 929
483 1001
484 773
484 776
484 835
484 896
484 925
484 930
484 1002
485 774
485 777
485 836
485 897
485 926
485 931
485 1003
486 775
486 778
486 837
486 898
486 927
486 932
486 1004
487 776
487 779
487 838
487 899
487 928
487 933
487 1005
488 777
488 780
488 839
488 900
488 929
488 934
488 1006
489 778
489 781
489 840
489 901
489 930
489 935
489 1007
490 779
490 782
490 841
490 902
490 931
490 936
490 1008
491 780
491 783
491 842
491 903
491 932
491 937
491 1009
492 781
492 784
492 843
492 904
492 933
492 938
492 1010
493 782
493 785
493 844
493 905
493 934
493 939
493 1011
494 783
494 786
494 845
494 906
494 935
494 940
494 1012
495 784
495 787
495 846
495 907
495 936
495 941
495 1013
496 785
496 788
496 847
496 908
496 937
496 942
496 1014
497 786
497 789
497 848
497 909
497 938
497 943
497 1015
498 787
498 790
498 849
498 910
498 939
498 944
498 1016
499 788
499 791
499 850
499 911
499 940
499 945
499 1017
500 789
500 792
500 851
500 912
500 941
500 946
500 1018
501 790
501 793
501 852
501 913
501 942
501 947
501 1019
502 791
502 794
502 853
502 914
502 943
502 948
502 1020
503 792
503 795
503 854
503 915
503 944
503 949
503 1021
504 793
504 796
504 855
504 916
504 945
504 950
504 1022
505 794
505 797
505 856
505 917
505 946
505 951
505 1023
506 795
506 798
506 857
506 918
506 947
506 952
506 1024
507 796
507 799
507 858
507 919
507 948
507 953
507 1025
508 684
508 797
508 800
508 859
508 920
508 949
508 954
509 685
509 798
509 801
509 860
509 921
509 950
509 955
510 686
510 799
510 802
510 861
510 922
510 951
510 956
511 687
511 800
511 803
511 862
511 923
511 952
511 957
512 688
512 801
512 804
512 863
512 924
512 953
512 958
513 689
513 802
513 805
513 864
513 925
513 954
513 959
514 690
514 803
514 806
514 865
514 926
514 955
514 960
515 691
515 804
515 807
515 866
515 927
515 956
515 961
516 692
516 805
516 808
516 867
516 928
516 957
516 962
517 693
517 806
517 809
517 868
517 929
517 958
517 963
518 694
518 807
518 810
518 869
518 930
518 959
518 964
519 695
519 808
519 811
519 870
519 931
519 960
519 965
520 696
520 809
520 812
520 871
520 932
520 961
520 966
521 697
521 810
521 813
521 872
521 933
521 962
521 967
522 698
522 811
522 814
522 873
522 934
522 963
522 968
523 699
523 812
523 815
523 874
523 935
523 964
523 969
524 700
524 813
524 816
524 875
524 936
524 965
524 970
525 701
525 814
525 817
525 876
525 937
525 966
525 971
526 702
526 815
526 818
526 877
526 938
526 967
526 972
527 703
527 816
527 819
527 878
527 939
527 968
527 973
528 704
528 817
528 820
528 879
528 940
528 969
528 974
529 705
529 818
529 821
529 880
529 941
529 970
529 975
530 706
530 819
530 822
530 881
530 942
530 971
530 976
531 707
531 820
531 823
531 882
531 943
531 972
531 977
532 708
532 821
532 824
532 883
532 944
532 973
532 978
533 709
533 822
533 825
533 884
533 945
533 974
533 979
534 710
534 823
534 826
534 885
534 946
534 975
534 980
535 711
535 824
535 827
535 886
535 947
535 976
535 981
536 712
536 825
536 828
536 887
536 948
536 977
536 982
537 713
537 826
537 829
537 888
537 949
537 978
537 983
538 714
538 827
538 830
538 889
538 950
538 979
538 984
539 715
539 828
539 831
539 890
539 951
539 980
539 985
540 716
540 829
540 832
540 891
540 952
540 981
540 986
541 717
541 830
541 833
541 892
541 953
541 982
541 987
542 718
542 831
542 834
542 893
542 954
542 983
542 988
543 719
543 832
543 835
543 894
543 955
543 984
543 989
544 720
544 833
544 836
544 895
544 956
544 985
544 990
545 721
545 834
545 837
545 896
545 957
545 986
545 991
546 722
546 835
546 838
546 897
546 958
546 987
546 992
547 723
547 836
547 839
547 898
547 959
547 988
547 993
548 724
548 837
548 840
548 899
548 960
548 989
548 994
549 725
549 838
549 841
549 900
549 961
549 990
549 995
550 726
550 839
550 842
550 901
550 962
550 991
550 996
551 727
551 840
551 843
551 902
551 963
551 992
551 997
552 728
552 841
552 844
552 903
552 964
552 993
552 998
553 729
553 842
553 845
553 904
553 965
553 994
553 999
554 730
554 843
554 846
554 905
554 966
554 995
554 1000
555 731
555 844
555 847
555 906
555 967
555 996
555 1001
556 732
556 845
556 848
556 907
556 968
556 997
556 1002
557 733
557 846
557 849
557 908
557 969
557 998
557 1003
558 734
558 847
558 850
558 909
558 970
558 999
558 1004
559 735
559 848
559 851
559 910
559 971
559 1000
559 1005
560 736
560 849
560 852
560 911
560 972
560 1001
560 1006
561 737
561 850
561 853
561 912
561 973
561 1002
561 1007
562 738
562 851
562 854
562 913
562 974
562 1003
562 1008
563 739
563 852
563 855
563 914
563 975
563 1004
563 1009
564 740
564 853
564 856
564 915
564 976
564 1005
564 1010
565 741
565 854
565 857
565 916
565 977
565 1006
565 1011
566 742
566 855
566 858
566 917
566 978
566 1007
566 1012
567 743
567 856
567 859
567 918
567 979
567 1008
567 1013
568 744
568 857
568 860
568 919
568 980
568 1009
568 1014
569 745
569 858
569 861
569 920
569 981
569 1010
569 1015
570 746
570 859
570 862
570 921
570 982
570 1011
570 1016
571 747
571 860
571 863
571 922
571 983
571 1012
571 1017
572 748
572 861
572 864
572 923
572 984
572 1013
572 1018
573 749
573 862
573 865
573 924
573 985
573 1014
573 1019
574 750
574 863
574 866
574 925
574 986
574 1015
574 1020
575 751
575 864
575 867
575 926
575 987
575 1016
575 1021
576 752
576 865
576 868
576 927
576 988
576 1017
576 1022
577 753
577 866
577 869
577 928
577 989
577 1018
577 1023
578 754
578 867
578 870
578 929
578 990
578 1019
578 1024
579 755
579 868
579 871
579 930
579 991
579 1020
579 1025
580 684
580 756
580 869
580 872
580 931
580 992
580 1021
581 685
581 757
581 870
581 873
581 932
581 993
581 1022
582 686
582 758
582 871
582 874
582 933
582 994
582 1023
583 687
583 759
583 872
583 875
583 934
583 995
583 1024
584 688
584 760
584 873
584 876
584 935
584 996
584 1025
585 684
585 689
585 761
585 874
585 877
585 936
585 997
586 685
586 690
586 762
586 875
586 878
586 937
586 998
587 686
587 691
587 763
587 876
587 879
587 938
587 999
588 687
588 692
588 764
588 877
588 880
588 939
588 1000
589 688
589 693
589 765
589 878
589 881
589 940
589 1001
590 689
590 694
590 766
590 879
590 882
590 941
590 1002
591 690
591 695
591 767
591 880
591 883
591 942
591 1003
592 691
592 696
592 768
592 881
592 884
592 943
592 1004
593 692
593 697
593 769
593 882
593 885
593 944
593 1005
594 693
594 698
594 770
594 883
594 886
594 945
594 1006
595 694
595 699
595 771
595 884
595 887
595 946
595 1007
596 695
596 700
596 772
596 885
596 888
596 947
596 1008
597 696
597 701
597 773
597 886
597 889
597 948
597 1009
598 697
598 702
598 774
598 887
598 890
598 949
598 1010
599 698
599 703
599 775
599 888
599 891
599 950
599 1011
600 699
600 704
600 776
600 889
600 892
600 951
600 1012
601 700
601 705
601 777
601 890
601 893
601 952
601 1013
602 701
602 706
602 778
602 891
602 894
602 953
602 1014
603 702
603 707
603 779
603 892
603 895
603 954
603 1015
604 703
604 708
604 780
604 893
604 896
604 955
604 1016
605 704
605 709
605 781
605 894
605 897
605 956
605 1017
606 705
606 710
606 782
606 895
606 898
606 957
606 1018
607 706
607 711
607 783
607 896
607 899
607 958
607 1019
608 707
608 712
608 784
608 897
608 900
608 959
608 1020
609 708
609 713
609 785
609 898
609 901
609 960
609 1021
610 709
610 714
610 786
610 899
610 902
610 961
610 1022
611 710
611 715
611 787
611 900
611 903
611 962
611 1023
612 711
612 716
612 788
612 901
612 904
612 963
612 1024
613 712
613 717
613 789
613 902
613 905
613 964
613 1025
614 684
614 713
614 718
614 790
614 903
614 906
614 965
615 685
615 714
615 719
615 791
615 904
615 907
615 966
616 686
616 715
616 720
616 792
616 905
616 908
616 967
617 687
617 716
617 721
617 793
617 906
617 909
617 968
618 688
618 717
618 722
618 794
618 907
618 910
618 969
619 689
619 718
619 723
619 795
619 908
619 911
619 970
620 690
620 719
620 724
620 796
620 909
620 912
620 971
621 691
621 720
621 725
621 797
621 910
621 913
621 972
622 692
622 721
622 726
622 798
622 911
622 914
622 973
623 693
623 722
623 727
623 799
623 912
623 915
623 974
624 694
624 723
624 728
624 800
624 913
624 916
624 975
625 695
625 724
625 729
625 801
625 914
625 917
625 976
626 696
626 725
626 730
626 802
626 915
626 918
626 977
627 697
627 726
627 731
627 803
627 916
627 919
627 978
628 698
628 727
628 732
628 804
628 917
628 920
628 979
629 699
629 728
629 733
629 805
629 918
629 921
629 980
630 700
630 729
630 734
630 806
630 919
630 922
630 981
631 701
631 730
631 735
631 807
631 920
631 923
631 982
632 702
632 731
632 736
632 808
632 921
632 924
632 983
633 703
633 732
633 737
633 809
633 922
633 925
633 984
634 704
634 733
634 738
634 810
634 923
634 926
634 985
635 705
635 734
635 739
635 811
635 924
635 927
635 986
636 706
636 735
636 740
636 812
636 925
636 928
636 987
637 707
637 736
637 741
637 813
637 926
637 929
637 988
638 708
638 737
638 742
638 814
638 927
638 930
638 989
639 709
639 738
639 743
639 815
639 928
639 931
639 990
640 710
640 739
640 744
640 816
640 929
640 932
640 991
641 711
641 740
641 745
641 817
641 930
641 933
641 992
642 712
642 741
642 746
642 818
642 931
642 934
642 993
643 713
643 742
643 747
643 819
643 932
643 935
643 994
644 714
644 743
644 748
644 820
644 933
644 936
644 995
645 715
645 744
645 749
645 821
645 934
645 937
645 996
646 716
646 745
646 750
646 822
646 935
646 938
646 997
647 717
647 746
647 751
647 823
647 936
647 939
647 998
648 718
648 747
648 752
648 824
648 937
648 940
648 999
649 719
649 748
649 753
649 825
649 938
649 941
649 1000
650 720
650 749
650 754
650 826
650 939
650 942
650 1001
651 721
651 750
651 755
651 827
651 940
651 943
651 1002
652 722
652 751
652 756
652 828
652 941
652 944
652 1003
653 723
653 752
653 757
653 829
653 942
653 945
653 1004
654 724
654 753
654 758
654 830
654 943
654 946
654 1005
655 725
655 754
655 759
655 831
655 944
655 947
655 1006
656 726
656 755
656 760
656 832
656 945
656 948
656 1007
657 727
657 756
657 761
657 833
657 946
657 949
657 1008
658 728
658 757
658 762
658 834
658 947
658 950
658 1009
659 729
659 758
659 763
659 835
659 948
659 951
659 1010
660 730
660 759
660 764
660 836
660 949
660 952
660 1011
661 731
661 760
661 765
661 837
661 950
661 953
661 1012
662 732
662 761
662 766
662 838
662 951
662 954
662 1013
663 733
663 762
663 767
663 839
663 952
663 955
663 1014
664 734
664 763
664 768
664 840
664 953
664 956
664 1015
665 735
665 764
665 769
665 841
665 954
665 957
665 1016
666 736
666 765
666 770
666 842
666 955
666 958
666 1017
667 737
667 766
667 771
667 843
667 956
667 959
667 1018
668 738
668 767
668 772
668 844
668 957
668 960
668 1019
669 739
669 768
669 773
669 845
669 958
669 961
669 1020
670 740
670 769
670 774
670 846
670 959
670 962
670 1021
671 741
671 770
671 775
671 847
671 960
671 963
671 1022
672 742
672 771
672 776
672 848
672 961
672 964
672 1023
673 743
673 772
673 777
673 849
673 962
673 965
673 1024
674 744
674 773
674 778
674 850
674 963
674 966
674 1025
675 684
675 745
675 774
675 779
675 851
675 964
675 967
676 685
676 746
676 775
676 780
676 852
676 965
676 968
677 686
677 747
677 776
677 781
677 853
677 966
677 969
678 687
678 748
678 777
678 782
678 854
678 967
678 970
679 688
679 749
679 778
679 783
679 855
679 968
679 971
680 689
680 750
680 779
680 784
680 856
680 969
680 972
681 690
681 751
681 780
681 785
681 857
681 970
681 973
682 691
682 752
682 781
682 786
682 858
682 971
682 974
683 692
683 753
683 782
683 787
683 859
683 972
683 975
