# Cayley graph of Z_163 rtimes_141 Z_54, degree 9, target diameter 5
# element (i,j) <-> index j*163+i ; connection set S = [5394, 3462, 3227, 5781, 2350, 6535, 4859, 4179, 4429]
N 8802
0 2350
0 3227
0 3462
0 4179
0 4429
0 4859
0 5394
0 5781
0 6535
1 2351
1 3228
1 3463
1 4180
1 4430
1 4860
1 5395
1 5782
1 6536
2 2352
2 3229
2 3464
2 4181
2 4431
2 4861
2 5396
2 5783
2 6537
3 2353
3 3230
3 3465
3 4182
3 4432
3 4862
3 5397
3 5784
3 6538
4 2354
4 3231
4 3466
4 4183
4 4433
4 4863
4 5398
4 5785
4 6539
5 2355
5 3232
5 3467
5 4184
5 4434
5 4864
5 5399
5 5786
5 6540
6 2356
6 3233
6 3468
6 4185
6 4435
6 4865
6 5400
6 5787
6 6541
7 2357
7 3234
7 3469
7 4186
7 4436
7 4866
7 5401
7 5788
7 6542
8 2358
8 3235
8 3470
8 4187
8 4437
8 4867
8 5402
8 5789
8 6543
9 2359
9 3236
9 3471
9 4188
9 4438
9 4868
9 5403
9 5790
9 6544
10 2360
10 3237
10 3472
10 4189
10 4439
10 4869
10 5404
10 5791
10 6545
11 2361
11 3238
11 3473
11 4190
11 4440
11 4870
11 5405
11 5792
11 6546
12 2362
12 3239
12 3474
12 4191
12 4441
12 4871
12 5406
12 5793
12 6547
13 2363
13 3240
13 3475
13 4192
13 4442
13 4872
13 5407
13 5794
13 6548
14 2364
14 3241
14 3476
14 4193
14 4443
14 4873
14 5408
14 5795
14 6549
15 2365
15 3242
15 3477
15 4194
15 4444
15 4874
15 5409
15 5796
15 6550
16 2366
16 3243
16 3478
16 4195
16 4445
16 4875
16 5410
16 5797
16 6551
17 2367
17 3244
17 3479
17 4196
17 4446
17 4876
17 5411
17 5798
17 6552
18 2368
18 3245
18 3480
18 4197
18 4447
18 4877
18 5412
18 5799
18 6553
19 2369
19 3246
19 3481
19 4198
19 4448
19 4878
19 5413
19 5800
19 6554
20 2370
20 3247
20 3482
20 4199
20 4449
20 4879
20 5414
20 5801
20 6555
21 2371
21 3248
21 3483
21 4200
21 4450
21 4880
21 5415
21 5802
21 6556
22 2372
22 3249
22 3484
22 4201
22 4451
22 4881
22 5416
22 5803
22 6557
23 2373
23 3250
23 3485
23 4202
23 4452
23 4882
23 5417
23 5804
23 6558
24 2374
24 3251
24 3486
24 4203
24 4453
24 4883
24 5418
24 5805
24 6559
25 2375
25 3252
25 3487
25 4204
25 4454
25 4884
25 5419
25 5806
25 6560
26 2376
26 3253
26 3488
26 4205
26 4455
26 4885
26 5420
26 5807
26 6561
27 2377
27 3254
27 3489
27 4206
27 4456
27 4886
27 5421
27 5808
27 6562
28 2378
28 3255
28 3490
28 4207
28 4457
28 4887
28 5422
28 5809
28 6563
29 2379
29 3256
29 3491
29 4208
29 4458
29 4888
29 5423
29 5810
29 6564
30 2380
30 3257
30 3492
30 4209
30 4459
30 4889
30 5424
30 5811
30 6565
31 2381
31 3258
31 3493
31 4210
31 4460
31 4727
31 5425
31 5812
31 6566
32 2382
32 3259
32 3494
32 4211
32 4461
32 4728
32 5426
32 5813
32 6567
33 2383
33 3097
33 3495
33 4212
33 4462
33 4729
33 5427
33 5814
33 6568
34 2384
34 3098
34 3496
34 4213
34 4463
34 4730
34 5428
34 5815
34 6569
35 2385
35 3099
35 3497
35 4214
35 4464
35 4731
35 5429
35 5816
35 6570
36 2386
36 3100
36 3498
36 4215
36 4465
36 4732
36 5430
36 5817
36 6571
37 2387
37 3101
37 3499
37 4216
37 4466
37 4733
37 5431
37 5818
37 6572
38 2388
38 3102
38 3500
38 4217
38 4467
38 4734
38 5432
38 5819
38 6573
39 2389
39 3103
39 3501
39 4218
39 4468
39 4735
39 5433
39 5820
39 6574
40 2390
40 3104
40 3502
40 4219
40 4469
40 4736
40 5434
40 5821
40 6575
41 2391
41 3105
41 3503
41 4220
41 4470
41 4737
41 5435
41 5822
41 6576
42 2392
42 3106
42 3504
42 4221
42 4471
42 4738
42 5436
42 5823
42 6577
43 2393
43 3107
43 3505
43 4222
43 4472
43 4739
43 5437
43 5824
43 6578
44 2394
44 3108
44 3506
44 4223
44 4473
44 4740
44 5438
44 5825
44 6579
45 2395
45 3109
45 3507
45 4224
45 4474
45 4741
45 5439
45 5826
45 6580
46 2396
46 3110
46 3508
46 4225
46 4475
46 4742
46 5440
46 5827
46 6581
47 2397
47 3111
47 3509
47 4226
47 4476
47 4743
47 5441
47 5828
47 6582
48 2398
48 3112
48 3510
48 4227
48 4477
48 4744
48 5442
48 5829
48 6583
49 2399
49 3113
49 3511
49 4228
49 4478
49 4745
49 5443
49 5830
49 6584
50 2400
50 3114
50 3512
50 4229
50 4479
50 4746
50 5444
50 5831
50 6585
51 2401
51 3115
51 3513
51 4230
51 4480
51 4747
51 5445
51 5832
51 6586
52 2402
52 3116
52 3514
52 4231
52 4481
52 4748
52 5446
52 5833
52 6587
53 2403
53 3117
53 3515
53 4232
53 4482
53 4749
53 5447
53 5834
53 6588
54 2404
54 3118
54 3516
54 4233
54 4483
54 4750
54 5448
54 5835
54 6589
55 2405
55 3119
55 3517
55 4234
55 4484
55 4751
55 5449
55 5836
55 6590
56 2406
56 3120
56 3518
56 4235
56 4485
56 4752
56 5450
56 5837
56 6591
57 2407
57 3121
57 3519
57 4236
57 4486
57 4753
57 5451
57 5838
57 6592
58 2408
58 3122
58 3520
58 4237
58 4487
58 4754
58 5452
58 5839
58 6593
59 2409
59 3123
59 3521
59 4075
59 4488
59 4755
59 5453
59 5840
59 6594
60 2410
60 3124
60 3522
60 4076
60 4489
60 4756
60 5454
60 5841
60 6595
61 2411
61 3125
61 3523
61 4077
61 4490
61 4757
61 5455
61 5842
61 6596
62 2412
62 3126
62 3524
62 4078
62 4491
62 4758
62 5456
62 5843
62 6597
63 2413
63 3127
63 3525
63 4079
63 4492
63 4759
63 5457
63 5844
63 6598
64 2414
64 3128
64 3526
64 4080
64 4493
64 4760
64 5458
64 5845
64 6599
65 2415
65 3129
65 3527
65 4081
65 4494
65 4761
65 5459
65 5846
65 6600
66 2416
66 3130
66 3528
66 4082
66 4495
66 4762
66 5460
66 5847
66 6601
67 2417
67 3131
67 3529
67 4083
67 4496
67 4763
67 5461
67 5848
67 6602
68 2418
68 3132
68 3530
68 4084
68 4497
68 4764
68 5462
68 5849
68 6603
69 2419
69 3133
69 3531
69 4085
69 4498
69 4765
69 5463
69 5850
69 6604
70 2420
70 3134
70 3532
70 4086
70 4499
70 4766
70 5464
70 5851
70 6605
71 2421
71 3135
71 3533
71 4087
71 4500
71 4767
71 5465
71 5852
71 6606
72 2422
72 3136
72 3534
72 4088
72 4501
72 4768
72 5466
72 5853
72 6607
73 2423
73 3137
73 3535
73 4089
73 4502
73 4769
73 5467
73 5854
73 6608
74 2424
74 3138
74 3536
74 4090
74 4503
74 4770
74 5468
74 5855
74 6609
75 2425
75 3139
75 3537
75 4091
75 4504
75 4771
75 5469
75 5856
75 6610
76 2426
76 3140
76 3538
76 4092
76 4505
76 4772
76 5470
76 5857
76 6611
77 2427
77 3141
77 3539
77 4093
77 4506
77 4773
77 5471
77 5858
77 6612
78 2428
78 3142
78 3540
78 4094
78 4507
78 4774
78 5472
78 5859
78 6613
79 2429
79 3143
79 3541
79 4095
79 4508
79 4775
79 5473
79 5860
79 6614
80 2430
80 3144
80 3542
80 4096
80 4509
80 4776
80 5474
80 5861
80 6615
81 2431
81 3145
81 3543
81 4097
81 4510
81 4777
81 5475
81 5862
81 6616
82 2432
82 3146
82 3544
82 4098
82 4511
82 4778
82 5476
82 5863
82 6617
83 2433
83 3147
83 3545
83 4099
83 4512
83 4779
83 5477
83 5864
83 6618
84 2434
84 3148
84 3546
84 4100
84 4513
84 4780
84 5478
84 5865
84 6619
85 2435
85 3149
85 3547
85 4101
85 4514
85 4781
85 5479
85 5866
85 6620
86 2436
86 3150
86 3548
86 4102
86 4515
86 4782
86 5480
86 5867
86 6621
87 2437
87 3151
87 3549
87 4103
87 4516
87 4783
87 5481
87 5705
87 6622
88 2438
88 3152
88 3550
88 4104
88 4517
88 4784
88 5482
88 5706
88 6623
89 2439
89 3153
89 3551
89 4105
89 4518
89 4785
89 5483
89 5707
89 6624
90 2440
90 3154
90 3552
90 4106
90 4519
90 4786
90 5484
90 5708
90 6625
91 2441
91 3155
91 3553
91 4107
91 4520
91 4787
91 5485
91 5709
91 6626
92 2442
92 3156
92 3554
92 4108
92 4521
92 4788
92 5486
92 5710
92 6627
93 2443
93 3157
93 3555
93 4109
93 4522
93 4789
93 5487
93 5711
93 6628
94 2444
94 3158
94 3556
94 4110
94 4523
94 4790
94 5488
94 5712
94 6629
95 2282
95 3159
95 3557
95 4111
95 4524
95 4791
95 5489
95 5713
95 6630
96 2283
96 3160
96 3558
96 4112
96 4525
96 4792
96 5490
96 5714
96 6631
97 2284
97 3161
97 3559
97 4113
97 4526
97 4793
97 5491
97 5715
97 6632
98 2285
98 3162
98 3560
98 4114
98 4527
98 4794
98 5492
98 5716
98 6633
99 2286
99 3163
99 3561
99 4115
99 4528
99 4795
99 5493
99 5717
99 6634
100 2287
100 3164
100 3562
100 4116
100 4529
100 4796
100 5494
100 5718
100 6635
101 2288
101 3165
101 3563
101 4117
101 4530
101 4797
101 5495
101 5719
101 6636
102 2289
102 3166
102 3564
102 4118
102 4531
102 4798
102 5496
102 5720
102 6637
103 2290
103 3167
103 3565
103 4119
103 4532
103 4799
103 5497
103 5721
103 6638
104 2291
104 3168
104 3566
104 4120
104 4533
104 4800
104 5498
104 5722
104 6639
105 2292
105 3169
105 3567
105 4121
105 4534
105 4801
105 5499
105 5723
105 6640
106 2293
106 3170
106 3568
106 4122
106 4535
106 4802
106 5500
106 5724
106 6641
107 2294
107 3171
107 3569
107 4123
107 4536
107 4803
107 5501
107 5725
107 6642
108 2295
108 3172
108 3570
108 4124
108 4537
108 4804
108 5502
108 5726
108 6643
109 2296
109 3173
109 3571
109 4125
109 4538
109 4805
109 5503
109 5727
109 6644
110 2297
110 3174
110 3572
110 4126
110 4539
110 4806
110 5504
110 5728
110 6645
111 2298
111 3175
111 3573
111 4127
111 4540
111 4807
111 5505
111 5729
111 6646
112 2299
112 3176
112 3574
112 4128
112 4541
112 4808
112 5506
112 5730
112 6647
113 2300
113 3177
113 3575
113 4129
113 4542
113 4809
113 5507
113 5731
113 6648
114 2301
114 3178
114 3576
114 4130
114 4543
114 4810
114 5508
114 5732
114 6649
115 2302
115 3179
115 3577
115 4131
115 4544
115 4811
115 5509
115 5733
115 6650
116 2303
116 3180
116 3578
116 4132
116 4545
116 4812
116 5510
116 5734
116 6651
117 2304
117 3181
117 3579
117 4133
117 4546
117 4813
117 5511
117 5735
117 6652
118 2305
118 3182
118 3580
118 4134
118 4547
118 4814
118 5512
118 5736
118 6653
119 2306
119 3183
119 3581
119 4135
119 4548
119 4815
119 5513
119 5737
119 6654
120 2307
120 3184
120 3582
120 4136
120 4549
120 4816
120 5514
120 5738
120 6655
121 2308
121 3185
121 3583
121 4137
121 4550
121 4817
121 5515
121 5739
121 6656
122 2309
122 3186
122 3584
122 4138
122 4551
122 4818
122 5516
122 5740
122 6657
123 2310
123 3187
123 3585
123 4139
123 4552
123 4819
123 5517
123 5741
123 6658
124 2311
124 3188
124 3423
124 4140
124 4553
124 4820
124 5518
124 5742
124 6659
125 2312
125 3189
125 3424
125 4141
125 4554
125 4821
125 5519
125 5743
125 6660
126 2313
126 3190
126 3425
126 4142
126 4555
126 4822
126 5520
126 5744
126 6661
127 2314
127 3191
127 3426
127 4143
127 4556
127 4823
127 5521
127 5745
127 6662
128 2315
128 3192
128 3427
128 4144
128 4557
128 4824
128 5522
128 5746
128 6663
129 2316
129 3193
129 3428
129 4145
129 4558
129 4825
129 5523
129 5747
129 6664
130 2317
130 3194
130 3429
130 4146
130 4559
130 4826
130 5524
130 5748
130 6665
131 2318
131 3195
131 3430
131 4147
131 4560
131 4827
131 5525
131 5749
131 6666
132 2319
132 3196
132 3431
132 4148
132 4561
132 4828
132 5526
132 5750
132 6667
133 2320
133 3197
133 3432
133 4149
133 4562
133 4829
133 5527
133 5751
133 6668
134 2321
134 3198
134 3433
134 4150
134 4563
134 4830
134 5528
134 5752
134 6669
135 2322
135 3199
135 3434
135 4151
135 4401
135 4831
135 5529
135 5753
135 6670
136 2323
136 3200
136 3435
136 4152
136 4402
136 4832
136 5530
136 5754
136 6671
137 2324
137 3201
137 3436
137 4153
137 4403
137 4833
137 5531
137 5755
137 6672
138 2325
138 3202
138 3437
138 4154
138 4404
138 4834
138 5532
138 5756
138 6673
139 2326
139 3203
139 3438
139 4155
139 4405
139 4835
139 5533
139 5757
139 6674
140 2327
140 3204
140 3439
140 4156
140 4406
140 4836
140 5534
140 5758
140 6675
141 2328
141 3205
141 3440
141 4157
141 4407
141 4837
141 5535
141 5759
141 6676
142 2329
142 3206
142 3441
142 4158
142 4408
142 4838
142 5536
142 5760
142 6677
143 2330
143 3207
143 3442
143 4159
143 4409
143 4839
143 5537
143 5761
143 6678
144 2331
144 3208
144 3443
144 4160
144 4410
144 4840
144 5538
144 5762
144 6679
145 2332
145 3209
145 3444
145 4161
145 4411
145 4841
145 5539
145 5763
145 6680
146 2333
146 3210
146 3445
146 4162
146 4412
146 4842
146 5540
146 5764
146 6681
147 2334
147 3211
147 3446
147 4163
147 4413
147 4843
147 5541
147 5765
147 6682
148 2335
148 3212
148 3447
148 4164
148 4414
148 4844
148 5379
148 5766
148 6520
149 2336
149 3213
149 3448
149 4165
149 4415
149 4845
149 5380
149 5767
149 6521
150 2337
150 3214
150 3449
150 4166
150 4416
150 4846
150 5381
150 5768
150 6522
151 2338
151 3215
151 3450
151 4167
151 4417
151 4847
151 5382
151 5769
151 6523
152 2339
152 3216
152 3451
152 4168
152 4418
152 4848
152 5383
152 5770
152 6524
153 2340
153 3217
153 3452
153 4169
153 4419
153 4849
153 5384
153 5771
153 6525
154 2341
154 3218
154 3453
154 4170
154 4420
154 4850
154 5385
154 5772
154 6526
155 2342
155 3219
155 3454
155 4171
155 4421
155 4851
155 5386
155 5773
155 6527
156 2343
156 3220
156 3455
156 4172
156 4422
156 4852
156 5387
156 5774
156 6528
157 2344
157 3221
157 3456
157 4173
157 4423
157 4853
157 5388
157 5775
157 6529
158 2345
158 3222
158 3457
158 4174
158 4424
158 4854
158 5389
158 5776
158 6530
159 2346
159 3223
159 3458
159 4175
159 4425
159 4855
159 5390
159 5777
159 6531
160 2347
160 3224
160 3459
160 4176
160 4426
160 4856
160 5391
160 5778
160 6532
161 2348
161 3225
161 3460
161 4177
161 4427
161 4857
161 5392
161 5779
161 6533
162 2349
162 3226
162 3461
162 4178
162 4428
162 4858
162 5393
162 5780
162 6534
163 2579
163 3334
163 3706
163 4395
163 4600
163 4920
163 5701
163 5989
163 6842
164 2580
164 3335
164 3707
164 4396
164 4601
164 4921
164 5702
164 5990
164 6843
165 2581
165 3336
165 3708
165 4397
165 4602
165 4922
165 5703
165 5991
165 6844
166 2582
166 3337
166 3709
166 4398
166 4603
166 4923
166 5704
166 5992
166 6845
167 2583
167 3338
167 3710
167 4399
167 4604
167 4924
167 5542
167 5993
167 6683
168 2584
168 3339
168 3711
168 4400
168 4605
168 4925
168 5543
168 5994
168 6684
169 2585
169 3340
169 3712
169 4238
169 4606
169 4926
169 5544
169 5995
169 6685
170 2586
170 3341
170 3713
170 4239
170 4607
170 4927
170 5545
170 5996
170 6686
171 2587
171 3342
171 3714
171 4240
171 4608
171 4928
171 5546
171 5997
171 6687
172 2588
172 3343
172 3715
172 4241
172 4609
172 4929
172 5547
172 5998
172 6688
173 2589
173 3344
173 3716
173 4242
173 4610
173 4930
173 5548
173 5999
173 6689
174 2590
174 3345
174 3717
174 4243
174 4611
174 4931
174 5549
174 6000
174 6690
175 2591
175 3346
175 3718
175 4244
175 4612
175 4932
175 5550
175 6001
175 6691
176 2592
176 3347
176 3719
176 4245
176 4613
176 4933
176 5551
176 6002
176 6692
177 2593
177 3348
177 3720
177 4246
177 4614
177 4934
177 5552
177 6003
177 6693
178 2594
178 3349
178 3721
178 4247
178 4615
178 4935
178 5553
178 6004
178 6694
179 2595
179 3350
179 3722
179 4248
179 4616
179 4936
179 5554
179 6005
179 6695
180 2596
180 3351
180 3723
180 4249
180 4617
180 4937
180 5555
180 6006
180 6696
181 2597
181 3352
181 3724
181 4250
181 4618
181 4938
181 5556
181 6007
181 6697
182 2598
182 3353
182 3725
182 4251
182 4619
182 4939
182 5557
182 6008
182 6698
183 2599
183 3354
183 3726
183 4252
183 4620
183 4940
183 5558
183 6009
183 6699
184 2600
184 3355
184 3727
184 4253
184 4621
184 4941
184 5559
184 6010
184 6700
185 2601
185 3356
185 3728
185 4254
185 4622
185 4942
185 5560
185 6011
185 6701
186 2602
186 3357
186 3729
186 4255
186 4623
186 4943
186 5561
186 6012
186 6702
187 2603
187 3358
187 3730
187 4256
187 4624
187 4944
187 5562
187 6013
187 6703
188 2604
188 3359
188 3731
188 4257
188 4625
188 4945
188 5563
188 6014
188 6704
189 2605
189 3360
189 3732
189 4258
189 4626
189 4946
189 5564
189 6015
189 6705
190 2606
190 3361
190 3733
190 4259
190 4627
190 4947
190 5565
190 6016
190 6706
191 2607
191 3362
191 3734
191 4260
191 4628
191 4948
191 5566
191 6017
191 6707
192 2445
192 3363
192 3735
192 4261
192 4629
192 4949
192 5567
192 6018
192 6708
193 2446
193 3364
193 3736
193 4262
193 4630
193 4950
193 5568
193 6019
193 6709
194 2447
194 3365
194 3737
194 4263
194 4631
194 4951
194 5569
194 6020
194 6710
195 2448
195 3366
195 3738
195 4264
195 4632
195 4952
195 5570
195 6021
195 6711
196 2449
196 3367
196 3739
196 4265
196 4633
196 4953
196 5571
196 6022
196 6712
197 2450
197 3368
197 3740
197 4266
197 4634
197 4954
197 5572
197 6023
197 6713
198 2451
198 3369
198 3741
198 4267
198 4635
198 4955
198 5573
198 6024
198 6714
199 2452
199 3370
199 3742
199 4268
199 4636
199 4956
199 5574
199 6025
199 6715
200 2453
200 3371
200 3743
200 4269
200 4637
200 4957
200 5575
200 6026
200 6716
201 2454
201 3372
201 3744
201 4270
201 4638
201 4958
201 5576
201 6027
201 6717
202 2455
202 3373
202 3745
202 4271
202 4639
202 4959
202 5577
202 6028
202 6718
203 2456
203 3374
203 3746
203 4272
203 4640
203 4960
203 5578
203 6029
203 6719
204 2457
204 3375
204 3747
204 4273
204 4641
204 4961
204 5579
204 6030
204 6720
205 2458
205 3376
205 3748
205 4274
205 4642
205 4962
205 5580
205 5868
205 6721
206 2459
206 3377
206 3586
206 4275
206 4643
206 4963
206 5581
206 5869
206 6722
207 2460
207 3378
207 3587
207 4276
207 4644
207 4964
207 5582
207 5870
207 6723
208 2461
208 3379
208 3588
208 4277
208 4645
208 4965
208 5583
208 5871
208 6724
209 2462
209 3380
209 3589
209 4278
209 4646
209 4966
209 5584
209 5872
209 6725
210 2463
210 3381
210 3590
210 4279
210 4647
210 4967
210 5585
210 5873
210 6726
211 2464
211 3382
211 3591
211 4280
211 4648
211 4968
211 5586
211 5874
211 6727
212 2465
212 3383
212 3592
212 4281
212 4649
212 4969
212 5587
212 5875
212 6728
213 2466
213 3384
213 3593
213 4282
213 4650
213 4970
213 5588
213 5876
213 6729
214 2467
214 3385
214 3594
214 4283
214 4651
214 4971
214 5589
214 5877
214 6730
215 2468
215 3386
215 3595
215 4284
215 4652
215 4972
215 5590
215 5878
215 6731
216 2469
216 3387
216 3596
216 4285
216 4653
216 4973
216 5591
216 5879
216 6732
217 2470
217 3388
217 3597
217 4286
217 4654
217 4974
217 5592
217 5880
217 6733
218 2471
218 3389
218 3598
218 4287
218 4655
218 4975
218 5593
218 5881
218 6734
219 2472
219 3390
219 3599
219 4288
219 4656
219 4976
219 5594
219 5882
219 6735
220 2473
220 3391
220 3600
220 4289
220 4657
220 4977
220 5595
220 5883
220 6736
221 2474
221 3392
221 3601
221 4290
221 4658
221 4978
221 5596
221 5884
221 6737
222 2475
222 3393
222 3602
222 4291
222 4659
222 4979
222 5597
222 5885
222 6738
223 2476
223 3394
223 3603
223 4292
223 4660
223 4980
223 5598
223 5886
223 6739
224 2477
224 3395
224 3604
224 4293
224 4661
224 4981
224 5599
224 5887
224 6740
225 2478
225 3396
225 3605
225 4294
225 4662
225 4982
225 5600
225 5888
225 6741
226 2479
226 3397
226 3606
226 4295
226 4663
226 4983
226 5601
226 5889
226 6742
227 2480
227 3398
227 3607
227 4296
227 4664
227 4984
227 5602
227 5890
227 6743
228 2481
228 3399
228 3608
228 4297
228 4665
228 4985
228 5603
228 5891
228 6744
229 2482
229 3400
229 3609
229 4298
229 4666
229 4986
229 5604
229 5892
229 6745
230 2483
230 3401
230 3610
230 4299
230 4667
230 4987
230 5605
230 5893
230 6746
231 2484
231 3402
231 3611
231 4300
231 4668
231 4988
231 5606
231 5894
231 6747
232 2485
232 3403
232 3612
232 4301
232 4669
232 4989
232 5607
232 5895
232 6748
233 2486
233 3404
233 3613
233 4302
233 4670
233 4990
233 5608
233 5896
233 6749
234 2487
234 3405
234 3614
234 4303
234 4671
234 4991
234 5609
234 5897
234 6750
235 2488
235 3406
235 3615
235 4304
235 4672
235 4992
235 5610
235 5898
235 6751
236 2489
236 3407
236 3616
236 4305
236 4673
236 4993
236 5611
236 5899
236 6752
237 2490
237 3408
237 3617
237 4306
237 4674
237 4994
237 5612
237 5900
237 6753
238 2491
238 3409
238 3618
238 4307
238 4675
238 4995
238 5613
238 5901
238 6754
239 2492
239 3410
239 3619
239 4308
239 4676
239 4996
239 5614
239 5902
239 6755
240 2493
240 3411
240 3620
240 4309
240 4677
240 4997
240 5615
240 5903
240 6756
241 2494
241 3412
241 3621
241 4310
241 4678
241 4998
241 5616
241 5904
241 6757
242 2495
242 3413
242 3622
242 4311
242 4679
242 4999
242 5617
242 5905
242 6758
243 2496
243 3414
243 3623
243 4312
243 4680
243 5000
243 5618
243 5906
243 6759
244 2497
244 3415
244 3624
244 4313
244 4681
244 5001
244 5619
244 5907
244 6760
245 2498
245 3416
245 3625
245 4314
245 4682
245 5002
245 5620
245 5908
245 6761
246 2499
246 3417
246 3626
246 4315
246 4683
246 5003
246 5621
246 5909
246 6762
247 2500
247 3418
247 3627
247 4316
247 4684
247 5004
247 5622
247 5910
247 6763
248 2501
248 3419
248 3628
248 4317
248 4685
248 5005
248 5623
248 5911
248 6764
249 2502
249 3420
249 3629
249 4318
249 4686
249 5006
249 5624
249 5912
249 6765
250 2503
250 3421
250 3630
250 4319
250 4687
250 5007
250 5625
250 5913
250 6766
251 2504
251 3422
251 3631
251 4320
251 4688
251 5008
251 5626
251 5914
251 6767
252 2505
252 3260
252 3632
252 4321
252 4689
252 5009
252 5627
252 5915
252 6768
253 2506
253 3261
253 3633
253 4322
253 4690
253 5010
253 5628
253 5916
253 6769
254 2507
254 3262
254 3634
254 4323
254 4691
254 5011
254 5629
254 5917
254 6770
255 2508
255 3263
255 3635
255 4324
255 4692
255 5012
255 5630
255 5918
255 6771
256 2509
256 3264
256 3636
256 4325
256 4693
256 5013
256 5631
256 5919
256 6772
257 2510
257 3265
257 3637
257 4326
257 4694
257 5014
257 5632
257 5920
257 6773
258 2511
258 3266
258 3638
258 4327
258 4695
258 5015
258 5633
258 5921
258 6774
259 2512
259 3267
259 3639
259 4328
259 4696
259 5016
259 5634
259 5922
259 6775
260 2513
260 3268
260 3640
260 4329
260 4697
260 5017
260 5635
260 5923
260 6776
261 2514
261 3269
261 3641
261 4330
261 4698
261 5018
261 5636
261 5924
261 6777
262 2515
262 3270
262 3642
262 4331
262 4699
262 5019
262 5637
262 5925
262 6778
263 2516
263 3271
263 3643
263 4332
263 4700
263 5020
263 5638
263 5926
263 6779
264 2517
264 3272
264 3644
264 4333
264 4701
264 5021
264 5639
264 5927
264 6780
265 2518
265 3273
265 3645
265 4334
265 4702
265 5022
265 5640
265 5928
265 6781
266 2519
266 3274
266 3646
266 4335
266 4703
266 5023
266 5641
266 5929
266 6782
267 2520
267 3275
267 3647
267 4336
267 4704
267 5024
267 5642
267 5930
267 6783
268 2521
268 3276
268 3648
268 4337
268 4705
268 5025
268 5643
268 5931
268 6784
269 2522
269 3277
269 3649
269 4338
269 4706
269 5026
269 5644
269 5932
269 6785
270 2523
270 3278
270 3650
270 4339
270 4707
270 5027
270 5645
270 5933
270 6786
271 2524
271 3279
271 3651
271 4340
271 4708
271 5028
271 5646
271 5934
271 6787
272 2525
272 3280
272 3652
272 4341
272 4709
272 5029
272 5647
272 5935
272 6788
273 2526
273 3281
273 3653
273 4342
273 4710
273 5030
273 5648
273 5936
273 6789
274 2527
274 3282
274 3654
274 4343
274 4711
274 5031
274 5649
274 5937
274 6790
275 2528
275 3283
275 3655
275 4344
275 4712
275 5032
275 5650
275 5938
275 6791
276 2529
276 3284
276 3656
276 4345
276 4713
276 5033
276 5651
276 5939
276 6792
277 2530
277 3285
277 3657
277 4346
277 4714
277 5034
277 5652
277 5940
277 6793
278 2531
278 3286
278 3658
278 4347
278 4715
278 5035
278 5653
278 5941
278 6794
279 2532
279 3287
279 3659
279 4348
279 4716
279 5036
279 5654
279 5942
279 6795
280 2533
280 3288
280 3660
280 4349
280 4717
280 5037
280 5655
280 5943
280 6796
281 2534
281 3289
281 3661
281 4350
281 4718
281 5038
281 5656
281 5944
281 6797
282 2535
282 3290
282 3662
282 4351
282 4719
282 5039
282 5657
282 5945
282 6798
283 2536
283 3291
283 3663
283 4352
283 4720
283 5040
283 5658
283 5946
283 6799
284 2537
284 3292
284 3664
284 4353
284 4721
284 5041
284 5659
284 5947
284 6800
285 2538
285 3293
285 3665
285 4354
285 4722
285 5042
285 5660
285 5948
285 6801
286 2539
286 3294
286 3666
286 4355
286 4723
286 5043
286 5661
286 5949
286 6802
287 2540
287 3295
287 3667
287 4356
287 4724
287 5044
287 5662
287 5950
287 6803
288 2541
288 3296
288 3668
288 4357
288 4725
288 5045
288 5663
288 5951
288 6804
289 2542
289 3297
289 3669
289 4358
289 4726
289 5046
289 5664
289 5952
289 6805
290 2543
290 3298
290 3670
290 4359
290 4564
290 5047
290 5665
290 5953
290 6806
291 2544
291 3299
291 3671
291 4360
291 4565
291 5048
291 5666
291 5954
291 6807
292 2545
292 3300
292 3672
292 4361
292 4566
292 5049
292 5667
292 5955
292 6808
293 2546
293 3301
293 3673
293 4362
293 4567
293 5050
293 5668
293 5956
293 6809
294 2547
294 3302
294 3674
294 4363
294 4568
294 5051
294 5669
294 5957
294 6810
295 2548
295 3303
295 3675
295 4364
295 4569
295 5052
295 5670
295 5958
295 6811
296 2549
296 3304
296 3676
296 4365
296 4570
296 4890
296 5671
296 5959
296 6812
297 2550
297 3305
297 3677
297 4366
297 4571
297 4891
297 5672
297 5960
297 6813
298 2551
298 3306
298 3678
298 4367
298 4572
298 4892
298 5673
298 5961
298 6814
299 2552
299 3307
299 3679
299 4368
299 4573
299 4893
299 5674
299 5962
299 6815
300 2553
300 3308
300 3680
300 4369
300 4574
300 4894
300 5675
300 5963
300 6816
301 2554
301 3309
301 3681
301 4370
301 4575
301 4895
301 5676
301 5964
301 6817
302 2555
302 3310
302 3682
302 4371
302 4576
302 4896
302 5677
302 5965
302 6818
303 2556
303 3311
303 3683
303 4372
303 4577
303 4897
303 5678
303 5966
303 6819
304 2557
304 3312
304 3684
304 4373
304 4578
304 4898
304 5679
304 5967
304 6820
305 2558
305 3313
305 3685
305 4374
305 4579
305 4899
305 5680
305 5968
305 6821
306 2559
306 3314
306 3686
306 4375
306 4580
306 4900
306 5681
306 5969
306 6822
307 2560
307 3315
307 3687
307 4376
307 4581
307 4901
307 5682
307 5970
307 6823
308 2561
308 3316
308 3688
308 4377
308 4582
308 4902
308 5683
308 5971
308 6824
309 2562
309 3317
309 3689
309 4378
309 4583
309 4903
309 5684
309 5972
309 6825
310 2563
310 3318
310 3690
310 4379
310 4584
310 4904
310 5685
310 5973
310 6826
311 2564
311 3319
311 3691
311 4380
311 4585
311 4905
311 5686
311 5974
311 6827
312 2565
312 3320
312 3692
312 4381
312 4586
312 4906
312 5687
312 5975
312 6828
313 2566
313 3321
313 3693
313 4382
313 4587
313 4907
313 5688
313 5976
313 6829
314 2567
314 3322
314 3694
314 4383
314 4588
314 4908
314 5689
314 5977
314 6830
315 2568
315 3323
315 3695
315 4384
315 4589
315 4909
315 5690
315 5978
315 6831
316 2569
316 3324
316 3696
316 4385
316 4590
316 4910
316 5691
316 5979
316 6832
317 2570
317 3325
317 3697
317 4386
317 4591
317 4911
317 5692
317 5980
317 6833
318 2571
318 3326
318 3698
318 4387
318 4592
318 4912
318 5693
318 5981
318 6834
319 2572
319 3327
319 3699
319 4388
319 4593
319 4913
319 5694
319 5982
319 6835
320 2573
320 3328
320 3700
320 4389
320 4594
320 4914
320 5695
320 5983
320 6836
321 2574
321 3329
321 3701
321 4390
321 4595
321 4915
321 5696
321 5984
321 6837
322 2575
322 3330
322 3702
322 4391
322 4596
322 4916
322 5697
322 5985
322 6838
323 2576
323 3331
323 3703
323 4392
323 4597
323 4917
323 5698
323 5986
323 6839
324 2577
324 3332
324 3704
324 4393
324 4598
324 4918
324 5699
324 5987
324 6840
325 2578
325 3333
325 3705
325 4394
325 4599
325 4919
325 5700
325 5988
325 6841
326 2757
326 3425
326 3880
326 4533
326 4750
326 5208
326 5793
326 6140
326 6934
327 2758
327 3426
327 3881
327 4534
327 4751
327 5209
327 5794
327 6141
327 6935
328 2759
328 3427
328 3882
328 4535
328 4752
328 5210
328 5795
328 6142
328 6936
329 2760
329 3428
329 3883
329 4536
329 4753
329 5211
329 5796
329 6143
329 6937
330 2761
330 3429
330 3884
330 4537
330 4754
330 5212
330 5797
330 6144
330 6938
331 2762
331 3430
331 3885
331 4538
331 4755
331 5213
331 5798
331 6145
331 6939
332 2763
332 3431
332 3886
332 4539
332 4756
332 5214
332 5799
332 6146
332 6940
333 2764
333 3432
333 3887
333 4540
333 4757
333 5215
333 5800
333 6147
333 6941
334 2765
334 3433
334 3888
334 4541
334 4758
334 5053
334 5801
334 6148
334 6942
335 2766
335 3434
335 3889
335 4542
335 4759
335 5054
335 5802
335 6149
335 6943
336 2767
336 3435
336 3890
336 4543
336 4760
336 5055
336 5803
336 6150
336 6944
337 2768
337 3436
337 3891
337 4544
337 4761
337 5056
337 5804
337 6151
337 6945
338 2769
338 3437
338 3892
338 4545
338 4762
338 5057
338 5805
338 6152
338 6946
339 2770
339 3438
339 3893
339 4546
339 4763
339 5058
339 5806
339 6153
339 6947
340 2608
340 3439
340 3894
340 4547
340 4764
340 5059
340 5807
340 6154
340 6948
341 2609
341 3440
341 3895
341 4548
341 4765
341 5060
341 5808
341 6155
341 6949
342 2610
342 3441
342 3896
342 4549
342 4766
342 5061
342 5809
342 6156
342 6950
343 2611
343 3442
343 3897
343 4550
343 4767
343 5062
343 5810
343 6157
343 6951
344 2612
344 3443
344 3898
344 4551
344 4768
344 5063
344 5811
344 6158
344 6952
345 2613
345 3444
345 3899
345 4552
345 4769
345 5064
345 5812
345 6159
345 6953
346 2614
346 3445
346 3900
346 4553
346 4770
346 5065
346 5813
346 6160
346 6954
347 2615
347 3446
347 3901
347 4554
347 4771
347 5066
347 5814
347 6161
347 6955
348 2616
348 3447
348 3902
348 4555
348 4772
348 5067
348 5815
348 6162
348 6956
349 2617
349 3448
349 3903
349 4556
349 4773
349 5068
349 5816
349 6163
349 6957
350 2618
350 3449
350 3904
350 4557
350 4774
350 5069
350 5817
350 6164
350 6958
351 2619
351 3450
351 3905
351 4558
351 4775
351 5070
351 5818
351 6165
351 6959
352 2620
352 3451
352 3906
352 4559
352 4776
352 5071
352 5819
352 6166
352 6960
353 2621
353 3452
353 3907
353 4560
353 4777
353 5072
353 5820
353 6167
353 6961
354 2622
354 3453
354 3908
354 4561
354 4778
354 5073
354 5821
354 6168
354 6962
355 2623
355 3454
355 3909
355 4562
355 4779
355 5074
355 5822
355 6169
355 6963
356 2624
356 3455
356 3910
356 4563
356 4780
356 5075
356 5823
356 6170
356 6964
357 2625
357 3456
357 3911
357 4401
357 4781
357 5076
357 5824
357 6171
357 6965
358 2626
358 3457
358 3749
358 4402
358 4782
358 5077
358 5825
358 6172
358 6966
359 2627
359 3458
359 3750
359 4403
359 4783
359 5078
359 5826
359 6173
359 6967
360 2628
360 3459
360 3751
360 4404
360 4784
360 5079
360 5827
360 6174
360 6968
361 2629
361 3460
361 3752
361 4405
361 4785
361 5080
361 5828
361 6175
361 6969
362 2630
362 3461
362 3753
362 4406
362 4786
362 5081
362 5829
362 6176
362 6970
363 2631
363 3462
363 3754
363 4407
363 4787
363 5082
363 5830
363 6177
363 6971
364 2632
364 3463
364 3755
364 4408
364 4788
364 5083
364 5831
364 6178
364 6972
365 2633
365 3464
365 3756
365 4409
365 4789
365 5084
365 5832
365 6179
365 6973
366 2634
366 3465
366 3757
366 4410
366 4790
366 5085
366 5833
366 6180
366 6974
367 2635
367 3466
367 3758
367 4411
367 4791
367 5086
367 5834
367 6181
367 6975
368 2636
368 3467
368 3759
368 4412
368 4792
368 5087
368 5835
368 6182
368 6976
369 2637
369 3468
369 3760
369 4413
369 4793
369 5088
369 5836
369 6183
369 6977
370 2638
370 3469
370 3761
370 4414
370 4794
370 5089
370 5837
370 6184
370 6978
371 2639
371 3470
371 3762
371 4415
371 4795
371 5090
371 5838
371 6185
371 6979
372 2640
372 3471
372 3763
372 4416
372 4796
372 5091
372 5839
372 6186
372 6980
373 2641
373 3472
373 3764
373 4417
373 4797
373 5092
373 5840
373 6187
373 6981
374 2642
374 3473
374 3765
374 4418
374 4798
374 5093
374 5841
374 6188
374 6982
375 2643
375 3474
375 3766
375 4419
375 4799
375 5094
375 5842
375 6189
375 6983
376 2644
376 3475
376 3767
376 4420
376 4800
376 5095
376 5843
376 6190
376 6984
377 2645
377 3476
377 3768
377 4421
377 4801
377 5096
377 5844
377 6191
377 6985
378 2646
378 3477
378 3769
378 4422
378 4802
378 5097
378 5845
378 6192
378 6986
379 2647
379 3478
379 3770
379 4423
379 4803
379 5098
379 5846
379 6193
379 6987
380 2648
380 3479
380 3771
380 4424
380 4804
380 5099
380 5847
380 6031
380 6988
381 2649
381 3480
381 3772
381 4425
381 4805
381 5100
381 5848
381 6032
381 6989
382 2650
382 3481
382 3773
382 4426
382 4806
382 5101
382 5849
382 6033
382 6990
383 2651
383 3482
383 3774
383 4427
383 4807
383 5102
383 5850
383 6034
383 6991
384 2652
384 3483
384 3775
384 4428
384 4808
384 5103
384 5851
384 6035
384 6992
385 2653
385 3484
385 3776
385 4429
385 4809
385 5104
385 5852
385 6036
385 6993
386 2654
386 3485
386 3777
386 4430
386 4810
386 5105
386 5853
386 6037
386 6994
387 2655
387 3486
387 3778
387 4431
387 4811
387 5106
387 5854
387 6038
387 6995
388 2656
388 3487
388 3779
388 4432
388 4812
388 5107
388 5855
388 6039
388 6996
389 2657
389 3488
389 3780
389 4433
389 4813
389 5108
389 5856
389 6040
389 6997
390 2658
390 3489
390 3781
390 4434
390 4814
390 5109
390 5857
390 6041
390 6998
391 2659
391 3490
391 3782
391 4435
391 4815
391 5110
391 5858
391 6042
391 6999
392 2660
392 3491
392 3783
392 4436
392 4816
392 5111
392 5859
392 6043
392 7000
393 2661
393 3492
393 3784
393 4437
393 4817
393 5112
393 5860
393 6044
393 7001
394 2662
394 3493
394 3785
394 4438
394 4818
394 5113
394 5861
394 6045
394 7002
395 2663
395 3494
395 3786
395 4439
395 4819
395 5114
395 5862
395 6046
395 7003
396 2664
396 3495
396 3787
396 4440
396 4820
396 5115
396 5863
396 6047
396 7004
397 2665
397 3496
397 3788
397 4441
397 4821
397 5116
397 5864
397 6048
397 7005
398 2666
398 3497
398 3789
398 4442
398 4822
398 5117
398 5865
398 6049
398 7006
399 2667
399 3498
399 3790
399 4443
399 4823
399 5118
399 5866
399 6050
399 7007
400 2668
400 3499
400 3791
400 4444
400 4824
400 5119
400 5867
400 6051
400 7008
401 2669
401 3500
401 3792
401 4445
401 4825
401 5120
401 5705
401 6052
401 6846
402 2670
402 3501
402 3793
402 4446
402 4826
402 5121
402 5706
402 6053
402 6847
403 2671
403 3502
403 3794
403 4447
403 4827
403 5122
403 5707
403 6054
403 6848
404 2672
404 3503
404 3795
404 4448
404 4828
404 5123
404 5708
404 6055
404 6849
405 2673
405 3504
405 3796
405 4449
405 4829
405 5124
405 5709
405 6056
405 6850
406 2674
406 3505
406 3797
406 4450
406 4830
406 5125
406 5710
406 6057
406 6851
407 2675
407 3506
407 3798
407 4451
407 4831
407 5126
407 5711
407 6058
407 6852
408 2676
408 3507
408 3799
408 4452
408 4832
408 5127
408 5712
408 6059
408 6853
409 2677
409 3508
409 3800
409 4453
409 4833
409 5128
409 5713
409 6060
409 6854
410 2678
410 3509
410 3801
410 4454
410 4834
410 5129
410 5714
410 6061
410 6855
411 2679
411 3510
411 3802
411 4455
411 4835
411 5130
411 5715
411 6062
411 6856
412 2680
412 3511
412 3803
412 4456
412 4836
412 5131
412 5716
412 6063
412 6857
413 2681
413 3512
413 3804
413 4457
413 4837
413 5132
413 5717
413 6064
413 6858
414 2682
414 3513
414 3805
414 4458
414 4838
414 5133
414 5718
414 6065
414 6859
415 2683
415 3514
415 3806
415 4459
415 4839
415 5134
415 5719
415 6066
415 6860
416 2684
416 3515
416 3807
416 4460
416 4840
416 5135
416 5720
416 6067
416 6861
417 2685
417 3516
417 3808
417 4461
417 4841
417 5136
417 5721
417 6068
417 6862
418 2686
418 3517
418 3809
418 4462
418 4842
418 5137
418 5722
418 6069
418 6863
419 2687
419 3518
419 3810
419 4463
419 4843
419 5138
419 5723
419 6070
419 6864
420 2688
420 3519
420 3811
420 4464
420 4844
420 5139
420 5724
420 6071
420 6865
421 2689
421 3520
421 3812
421 4465
421 4845
421 5140
421 5725
421 6072
421 6866
422 2690
422 3521
422 3813
422 4466
422 4846
422 5141
422 5726
422 6073
422 6867
423 2691
423 3522
423 3814
423 4467
423 4847
423 5142
423 5727
423 6074
423 6868
424 2692
424 3523
424 3815
424 4468
424 4848
424 5143
424 5728
424 6075
424 6869
425 2693
425 3524
425 3816
425 4469
425 4849
425 5144
425 5729
425 6076
425 6870
426 2694
426 3525
426 3817
426 4470
426 4850
426 5145
426 5730
426 6077
426 6871
427 2695
427 3526
427 3818
427 4471
427 4851
427 5146
427 5731
427 6078
427 6872
428 2696
428 3527
428 3819
428 4472
428 4852
428 5147
428 5732
428 6079
428 6873
429 2697
429 3528
429 3820
429 4473
429 4853
429 5148
429 5733
429 6080
429 6874
430 2698
430 3529
430 3821
430 4474
430 4854
430 5149
430 5734
430 6081
430 6875
431 2699
431 3530
431 3822
431 4475
431 4855
431 5150
431 5735
431 6082
431 6876
432 2700
432 3531
432 3823
432 4476
432 4856
432 5151
432 5736
432 6083
432 6877
433 2701
433 3532
433 3824
433 4477
433 4857
433 5152
433 5737
433 6084
433 6878
434 2702
434 3533
434 3825
434 4478
434 4858
434 5153
434 5738
434 6085
434 6879
435 2703
435 3534
435 3826
435 4479
435 4859
435 5154
435 5739
435 6086
435 6880
436 2704
436 3535
436 3827
436 4480
436 4860
436 5155
436 5740
436 6087
436 6881
437 2705
437 3536
437 3828
437 4481
437 4861
437 5156
437 5741
437 6088
437 6882
438 2706
438 3537
438 3829
438 4482
438 4862
438 5157
438 5742
438 6089
438 6883
439 2707
439 3538
439 3830
439 4483
439 4863
439 5158
439 5743
439 6090
439 6884
440 2708
440 3539
440 3831
440 4484
440 4864
440 5159
440 5744
440 6091
440 6885
441 2709
441 3540
441 3832
441 4485
441 4865
441 5160
441 5745
441 6092
441 6886
442 2710
442 3541
442 3833
442 4486
442 4866
442 5161
442 5746
442 6093
442 6887
443 2711
443 3542
443 3834
443 4487
443 4867
443 5162
443 5747
443 6094
443 6888
444 2712
444 3543
444 3835
444 4488
444 4868
444 5163
444 5748
444 6095
444 6889
445 2713
445 3544
445 3836
445 4489
445 4869
445 5164
445 5749
445 6096
445 6890
446 2714
446 3545
446 3837
446 4490
446 4870
446 5165
446 5750
446 6097
446 6891
447 2715
447 3546
447 3838
447 4491
447 4871
447 5166
447 5751
447 6098
447 6892
448 2716
448 3547
448 3839
448 4492
448 4872
448 5167
448 5752
448 6099
448 6893
449 2717
449 3548
449 3840
449 4493
449 4873
449 5168
449 5753
449 6100
449 6894
450 2718
450 3549
450 3841
450 4494
450 4874
450 5169
450 5754
450 6101
450 6895
451 2719
451 3550
451 3842
451 4495
451 4875
451 5170
451 5755
451 6102
451 6896
452 2720
452 3551
452 3843
452 4496
452 4876
452 5171
452 5756
452 6103
452 6897
453 2721
453 3552
453 3844
453 4497
453 4877
453 5172
453 5757
453 6104
453 6898
454 2722
454 3553
454 3845
454 4498
454 4878
454 5173
454 5758
454 6105
454 6899
455 2723
455 3554
455 3846
455 4499
455 4879
455 5174
455 5759
455 6106
455 6900
456 2724
456 3555
456 3847
456 4500
456 4880
456 5175
456 5760
456 6107
456 6901
457 2725
457 3556
457 3848
457 4501
457 4881
457 5176
457 5761
457 6108
457 6902
458 2726
458 3557
458 3849
458 4502
458 4882
458 5177
458 5762
458 6109
458 6903
459 2727
459 3558
459 3850
459 4503
459 4883
459 5178
459 5763
459 6110
459 6904
460 2728
460 3559
460 3851
460 4504
460 4884
460 5179
460 5764
460 6111
460 6905
461 2729
461 3560
461 3852
461 4505
461 4885
461 5180
461 5765
461 6112
461 6906
462 2730
462 3561
462 3853
462 4506
462 4886
462 5181
462 5766
462 6113
462 6907
463 2731
463 3562
463 3854
463 4507
463 4887
463 5182
463 5767
463 6114
463 6908
464 2732
464 3563
464 3855
464 4508
464 4888
464 5183
464 5768
464 6115
464 6909
465 2733
465 3564
465 3856
465 4509
465 4889
465 5184
465 5769
465 6116
465 6910
466 2734
466 3565
466 3857
466 4510
466 4727
466 5185
466 5770
466 6117
466 6911
467 2735
467 3566
467 3858
467 4511
467 4728
467 5186
467 5771
467 6118
467 6912
468 2736
468 3567
468 3859
468 4512
468 4729
468 5187
468 5772
468 6119
468 6913
469 2737
469 3568
469 3860
469 4513
469 4730
469 5188
469 5773
469 6120
469 6914
470 2738
470 3569
470 3861
470 4514
470 4731
470 5189
470 5774
470 6121
470 6915
471 2739
471 3570
471 3862
471 4515
471 4732
471 5190
471 5775
471 6122
471 6916
472 2740
472 3571
472 3863
472 4516
472 4733
472 5191
472 5776
472 6123
472 6917
473 2741
473 3572
473 3864
473 4517
473 4734
473 5192
473 5777
473 6124
473 6918
474 2742
474 3573
474 3865
474 4518
474 4735
474 5193
474 5778
474 6125
474 6919
475 2743
475 3574
475 3866
475 4519
475 4736
475 5194
475 5779
475 6126
475 6920
476 2744
476 3575
476 3867
476 4520
476 4737
476 5195
476 5780
476 6127
476 6921
477 2745
477 3576
477 3868
477 4521
477 4738
477 5196
477 5781
477 6128
477 6922
478 2746
478 3577
478 3869
478 4522
478 4739
478 5197
478 5782
478 6129
478 6923
479 2747
479 3578
479 3870
479 4523
479 4740
479 5198
479 5783
479 6130
479 6924
480 2748
480 3579
480 3871
480 4524
480 4741
480 5199
480 5784
480 6131
480 6925
481 2749
481 3580
481 3872
481 4525
481 4742
481 5200
481 5785
481 6132
481 6926
482 2750
482 3581
482 3873
482 4526
482 4743
482 5201
482 5786
482 6133
482 6927
483 2751
483 3582
483 3874
483 4527
483 4744
483 5202
483 5787
483 6134
483 6928
484 2752
484 3583
484 3875
484 4528
484 4745
484 5203
484 5788
484 6135
484 6929
485 2753
485 3584
485 3876
485 4529
485 4746
485 5204
485 5789
485 6136
485 6930
486 2754
486 3585
486 3877
486 4530
486 4747
486 5205
486 5790
486 6137
486 6931
487 2755
487 3423
487 3878
487 4531
487 4748
487 5206
487 5791
487 6138
487 6932
488 2756
488 3424
488 3879
488 4532
488 4749
488 5207
488 5792
488 6139
488 6933
489 2916
489 3705
489 3964
489 4594
489 5036
489 5229
489 5888
489 6241
489 7029
490 2917
490 3706
490 3965
490 4595
490 5037
490 5230
490 5889
490 6242
490 7030
491 2918
491 3707
491 3966
491 4596
491 5038
491 5231
491 5890
491 6243
491 7031
492 2919
492 3708
492 3967
492 4597
492 5039
492 5232
492 5891
492 6244
492 7032
493 2920
493 3709
493 3968
493 4598
493 5040
493 5233
493 5892
493 6245
493 7033
494 2921
494 3710
494 3969
494 4599
494 5041
494 5234
494 5893
494 6246
494 7034
495 2922
495 3711
495 3970
495 4600
495 5042
495 5235
495 5894
495 6247
495 7035
496 2923
496 3712
496 3971
496 4601
496 5043
496 5236
496 5895
496 6248
496 7036
497 2924
497 3713
497 3972
497 4602
497 5044
497 5237
497 5896
497 6249
497 7037
498 2925
498 3714
498 3973
498 4603
498 5045
498 5238
498 5897
498 6250
498 7038
499 2926
499 3715
499 3974
499 4604
499 5046
499 5239
499 5898
499 6251
499 7039
500 2927
500 3716
500 3975
500 4605
500 5047
500 5240
500 5899
500 6252
500 7040
501 2928
501 3717
501 3976
501 4606
501 5048
501 5241
501 5900
501 6253
501 7041
502 2929
502 3718
502 3977
502 4607
502 5049
502 5242
502 5901
502 6254
502 7042
503 2930
503 3719
503 3978
503 4608
503 5050
503 5243
503 5902
503 6255
503 7043
504 2931
504 3720
504 3979
504 4609
504 5051
504 5244
504 5903
504 6256
504 7044
505 2932
505 3721
505 3980
505 4610
505 5052
505 5245
505 5904
505 6257
505 7045
506 2933
506 3722
506 3981
506 4611
506 4890
506 5246
506 5905
506 6258
506 7046
507 2771
507 3723
507 3982
507 4612
507 4891
507 5247
507 5906
507 6259
507 7047
508 2772
508 3724
508 3983
508 4613
508 4892
508 5248
508 5907
508 6260
508 7048
509 2773
509 3725
509 3984
509 4614
509 4893
509 5249
509 5908
509 6261
509 7049
510 2774
510 3726
510 3985
510 4615
510 4894
510 5250
510 5909
510 6262
510 7050
511 2775
511 3727
511 3986
511 4616
511 4895
511 5251
511 5910
511 6263
511 7051
512 2776
512 3728
512 3987
512 4617
512 4896
512 5252
512 5911
512 6264
512 7052
513 2777
513 3729
513 3988
513 4618
513 4897
513 5253
513 5912
513 6265
513 7053
514 2778
514 3730
514 3989
514 4619
514 4898
514 5254
514 5913
514 6266
514 7054
515 2779
515 3731
515 3990
515 4620
515 4899
515 5255
515 5914
515 6267
515 7055
516 2780
516 3732
516 3991
516 4621
516 4900
516 5256
516 5915
516 6268
516 7056
517 2781
517 3733
517 3992
517 4622
517 4901
517 5257
517 5916
517 6269
517 7057
518 2782
518 3734
518 3993
518 4623
518 4902
518 5258
518 5917
518 6270
518 7058
519 2783
519 3735
519 3994
519 4624
519 4903
519 5259
519 5918
519 6271
519 7059
520 2784
520 3736
520 3995
520 4625
520 4904
520 5260
520 5919
520 6272
520 7060
521 2785
521 3737
521 3996
521 4626
521 4905
521 5261
521 5920
521 6273
521 7061
522 2786
522 3738
522 3997
522 4627
522 4906
522 5262
522 5921
522 6274
522 7062
523 2787
523 3739
523 3998
523 4628
523 4907
523 5263
523 5922
523 6275
523 7063
524 2788
524 3740
524 3999
524 4629
524 4908
524 5264
524 5923
524 6276
524 7064
525 2789
525 3741
525 4000
525 4630
525 4909
525 5265
525 5924
525 6277
525 7065
526 2790
526 3742
526 4001
526 4631
526 4910
526 5266
526 5925
526 6278
526 7066
527 2791
527 3743
527 4002
527 4632
527 4911
527 5267
527 5926
527 6279
527 7067
528 2792
528 3744
528 4003
528 4633
528 4912
528 5268
528 5927
528 6280
528 7068
529 2793
529 3745
529 4004
529 4634
529 4913
529 5269
529 5928
529 6281
529 7069
530 2794
530 3746
530 4005
530 4635
530 4914
530 5270
530 5929
530 6282
530 7070
531 2795
531 3747
531 4006
531 4636
531 4915
531 5271
531 5930
531 6283
531 7071
532 2796
532 3748
532 4007
532 4637
532 4916
532 5272
532 5931
532 6284
532 7072
533 2797
533 3586
533 4008
533 4638
533 4917
533 5273
533 5932
533 6285
533 7073
534 2798
534 3587
534 4009
534 4639
534 4918
534 5274
534 5933
534 6286
534 7074
535 2799
535 3588
535 4010
535 4640
535 4919
535 5275
535 5934
535 6287
535 7075
536 2800
536 3589
536 4011
536 4641
536 4920
536 5276
536 5935
536 6288
536 7076
537 2801
537 3590
537 4012
537 4642
537 4921
537 5277
537 5936
537 6289
537 7077
538 2802
538 3591
538 4013
538 4643
538 4922
538 5278
538 5937
538 6290
538 7078
539 2803
539 3592
539 4014
539 4644
539 4923
539 5279
539 5938
539 6291
539 7079
540 2804
540 3593
540 4015
540 4645
540 4924
540 5280
540 5939
540 6292
540 7080
541 2805
541 3594
541 4016
541 4646
541 4925
541 5281
541 5940
541 6293
541 7081
542 2806
542 3595
542 4017
542 4647
542 4926
542 5282
542 5941
542 6294
542 7082
543 2807
543 3596
543 4018
543 4648
543 4927
543 5283
543 5942
543 6295
543 7083
544 2808
544 3597
544 4019
544 4649
544 4928
544 5284
544 5943
544 6296
544 7084
545 2809
545 3598
545 4020
545 4650
545 4929
545 5285
545 5944
545 6297
545 7085
546 2810
546 3599
546 4021
546 4651
546 4930
546 5286
546 5945
546 6298
546 7086
547 2811
547 3600
547 4022
547 4652
547 4931
547 5287
547 5946
547 6299
547 7087
548 2812
548 3601
548 4023
548 4653
548 4932
548 5288
548 5947
548 6300
548 7088
549 2813
549 3602
549 4024
549 4654
549 4933
549 5289
549 5948
549 6301
549 7089
550 2814
550 3603
550 4025
550 4655
550 4934
550 5290
550 5949
550 6302
550 7090
551 2815
551 3604
551 4026
551 4656
551 4935
551 5291
551 5950
551 6303
551 7091
552 2816
552 3605
552 4027
552 4657
552 4936
552 5292
552 5951
552 6304
552 7092
553 2817
553 3606
553 4028
553 4658
553 4937
553 5293
553 5952
553 6305
553 7093
554 2818
554 3607
554 4029
554 4659
554 4938
554 5294
554 5953
554 6306
554 7094
555 2819
555 3608
555 4030
555 4660
555 4939
555 5295
555 5954
555 6307
555 7095
556 2820
556 3609
556 4031
556 4661
556 4940
556 5296
556 5955
556 6308
556 7096
557 2821
557 3610
557 4032
557 4662
557 4941
557 5297
557 5956
557 6309
557 7097
558 2822
558 3611
558 4033
558 4663
558 4942
558 5298
558 5957
558 6310
558 7098
559 2823
559 3612
559 4034
559 4664
559 4943
559 5299
559 5958
559 6311
559 7099
560 2824
560 3613
560 4035
560 4665
560 4944
560 5300
560 5959
560 6312
560 7100
561 2825
561 3614
561 4036
561 4666
561 4945
561 5301
561 5960
561 6313
561 7101
562 2826
562 3615
562 4037
562 4667
562 4946
562 5302
562 5961
562 6314
562 7102
563 2827
563 3616
563 4038
563 4668
563 4947
563 5303
563 5962
563 6315
563 7103
564 2828
564 3617
564 4039
564 4669
564 4948
564 5304
564 5963
564 6316
564 7104
565 2829
565 3618
565 4040
565 4670
565 4949
565 5305
565 5964
565 6317
565 7105
566 2830
566 3619
566 4041
566 4671
566 4950
566 5306
566 5965
566 6318
566 7106
567 2831
567 3620
567 4042
567 4672
567 4951
567 5307
567 5966
567 6319
567 7107
568 2832
568 3621
568 4043
568 4673
568 4952
568 5308
568 5967
568 6320
568 7108
569 2833
569 3622
569 4044
569 4674
569 4953
569 5309
569 5968
569 6321
569 7109
570 2834
570 3623
570 4045
570 4675
570 4954
570 5310
570 5969
570 6322
570 7110
571 2835
571 3624
571 4046
571 4676
571 4955
571 5311
571 5970
571 6323
571 7111
572 2836
572 3625
572 4047
572 4677
572 4956
572 5312
572 5971
572 6324
572 7112
573 2837
573 3626
573 4048
573 4678
573 4957
573 5313
573 5972
573 6325
573 7113
574 2838
574 3627
574 4049
574 4679
574 4958
574 5314
574 5973
574 6326
574 7114
575 2839
575 3628
575 4050
575 4680
575 4959
575 5315
575 5974
575 6327
575 7115
576 2840
576 3629
576 4051
576 4681
576 4960
576 5316
576 5975
576 6328
576 7116
577 2841
577 3630
577 4052
577 4682
577 4961
577 5317
577 5976
577 6329
577 7117
578 2842
578 3631
578 4053
578 4683
578 4962
578 5318
578 5977
578 6330
578 7118
579 2843
579 3632
579 4054
579 4684
579 4963
579 5319
579 5978
579 6331
579 7119
580 2844
580 3633
580 4055
580 4685
580 4964
580 5320
580 5979
580 6332
580 7120
581 2845
581 3634
581 4056
581 4686
581 4965
581 5321
581 5980
581 6333
581 7121
582 2846
582 3635
582 4057
582 4687
582 4966
582 5322
582 5981
582 6334
582 7122
583 2847
583 3636
583 4058
583 4688
583 4967
583 5323
583 5982
583 6335
583 7123
584 2848
584 3637
584 4059
584 4689
584 4968
584 5324
584 5983
584 6336
584 7124
585 2849
585 3638
585 4060
585 4690
585 4969
585 5325
585 5984
585 6337
585 7125
586 2850
586 3639
586 4061
586 4691
586 4970
586 5326
586 5985
586 6338
586 7126
587 2851
587 3640
587 4062
587 4692
587 4971
587 5327
587 5986
587 6339
587 7127
588 2852
588 3641
588 4063
588 4693
588 4972
588 5328
588 5987
588 6340
588 7128
589 2853
589 3642
589 4064
589 4694
589 4973
589 5329
589 5988
589 6341
589 7129
590 2854
590 3643
590 4065
590 4695
590 4974
590 5330
590 5989
590 6342
590 7130
591 2855
591 3644
591 4066
591 4696
591 4975
591 5331
591 5990
591 6343
591 7131
592 2856
592 3645
592 4067
592 4697
592 4976
592 5332
592 5991
592 6344
592 7132
593 2857
593 3646
593 4068
593 4698
593 4977
593 5333
593 5992
593 6345
593 7133
594 2858
594 3647
594 4069
594 4699
594 4978
594 5334
594 5993
594 6346
594 7134
595 2859
595 3648
595 4070
595 4700
595 4979
595 5335
595 5994
595 6347
595 7135
596 2860
596 3649
596 4071
596 4701
596 4980
596 5336
596 5995
596 6348
596 7136
597 2861
597 3650
597 4072
597 4702
597 4981
597 5337
597 5996
597 6349
597 7137
598 2862
598 3651
598 4073
598 4703
598 4982
598 5338
598 5997
598 6350
598 7138
599 2863
599 3652
599 4074
599 4704
599 4983
599 5339
599 5998
599 6351
599 7139
600 2864
600 3653
600 3912
600 4705
600 4984
600 5340
600 5999
600 6352
600 7140
601 2865
601 3654
601 3913
601 4706
601 4985
601 5341
601 6000
601 6353
601 7141
602 2866
602 3655
602 3914
602 4707
602 4986
602 5342
602 6001
602 6354
602 7142
603 2867
603 3656
603 3915
603 4708
603 4987
603 5343
603 6002
603 6355
603 7143
604 2868
604 3657
604 3916
604 4709
604 4988
604 5344
604 6003
604 6356
604 7144
605 2869
605 3658
605 3917
605 4710
605 4989
605 5345
605 6004
605 6194
605 7145
606 2870
606 3659
606 3918
606 4711
606 4990
606 5346
606 6005
606 6195
606 7146
607 2871
607 3660
607 3919
607 4712
607 4991
607 5347
607 6006
607 6196
607 7147
608 2872
608 3661
608 3920
608 4713
608 4992
608 5348
608 6007
608 6197
608 7148
609 2873
609 3662
609 3921
609 4714
609 4993
609 5349
609 6008
609 6198
609 7149
610 2874
610 3663
610 3922
610 4715
610 4994
610 5350
610 6009
610 6199
610 7150
611 2875
611 3664
611 3923
611 4716
611 4995
611 5351
611 6010
611 6200
611 7151
612 2876
612 3665
612 3924
612 4717
612 4996
612 5352
612 6011
612 6201
612 7152
613 2877
613 3666
613 3925
613 4718
613 4997
613 5353
613 6012
613 6202
613 7153
614 2878
614 3667
614 3926
614 4719
614 4998
614 5354
614 6013
614 6203
614 7154
615 2879
615 3668
615 3927
615 4720
615 4999
615 5355
615 6014
615 6204
615 7155
616 2880
616 3669
616 3928
616 4721
616 5000
616 5356
616 6015
616 6205
616 7156
617 2881
617 3670
617 3929
617 4722
617 5001
617 5357
617 6016
617 6206
617 7157
618 2882
618 3671
618 3930
618 4723
618 5002
618 5358
618 6017
618 6207
618 7158
619 2883
619 3672
619 3931
619 4724
619 5003
619 5359
619 6018
619 6208
619 7159
620 2884
620 3673
620 3932
620 4725
620 5004
620 5360
620 6019
620 6209
620 7160
621 2885
621 3674
621 3933
621 4726
621 5005
621 5361
621 6020
621 6210
621 7161
622 2886
622 3675
622 3934
622 4564
622 5006
622 5362
622 6021
622 6211
622 7162
623 2887
623 3676
623 3935
623 4565
623 5007
623 5363
623 6022
623 6212
623 7163
624 2888
624 3677
624 3936
624 4566
624 5008
624 5364
624 6023
624 6213
624 7164
625 2889
625 3678
625 3937
625 4567
625 5009
625 5365
625 6024
625 6214
625 7165
626 2890
626 3679
626 3938
626 4568
626 5010
626 5366
626 6025
626 6215
626 7166
627 2891
627 3680
627 3939
627 4569
627 5011
627 5367
627 6026
627 6216
627 7167
628 2892
628 3681
628 3940
628 4570
628 5012
628 5368
628 6027
628 6217
628 7168
629 2893
629 3682
629 3941
629 4571
629 5013
629 5369
629 6028
629 6218
629 7169
630 2894
630 3683
630 3942
630 4572
630 5014
630 5370
630 6029
630 6219
630 7170
631 2895
631 3684
631 3943
631 4573
631 5015
631 5371
631 6030
631 6220
631 7171
632 2896
632 3685
632 3944
632 4574
632 5016
632 5372
632 5868
632 6221
632 7009
633 2897
633 3686
633 3945
633 4575
633 5017
633 5373
633 5869
633 6222
633 7010
634 2898
634 3687
634 3946
634 4576
634 5018
634 5374
634 5870
634 6223
634 7011
635 2899
635 3688
635 3947
635 4577
635 5019
635 5375
635 5871
635 6224
635 7012
636 2900
636 3689
636 3948
636 4578
636 5020
636 5376
636 5872
636 6225
636 7013
637 2901
637 3690
637 3949
637 4579
637 5021
637 5377
637 5873
637 6226
637 7014
638 2902
638 3691
638 3950
638 4580
638 5022
638 5378
638 5874
638 6227
638 7015
639 2903
639 3692
639 3951
639 4581
639 5023
639 5216
639 5875
639 6228
639 7016
640 2904
640 3693
640 3952
640 4582
640 5024
640 5217
640 5876
640 6229
640 7017
641 2905
641 3694
641 3953
641 4583
641 5025
641 5218
641 5877
641 6230
641 7018
642 2906
642 3695
642 3954
642 4584
642 5026
642 5219
642 5878
642 6231
642 7019
643 2907
643 3696
643 3955
643 4585
643 5027
643 5220
643 5879
643 6232
643 7020
644 2908
644 3697
644 3956
644 4586
644 5028
644 5221
644 5880
644 6233
644 7021
645 2909
645 3698
645 3957
645 4587
645 5029
645 5222
645 5881
645 6234
645 7022
646 2910
646 3699
646 3958
646 4588
646 5030
646 5223
646 5882
646 6235
646 7023
647 2911
647 3700
647 3959
647 4589
647 5031
647 5224
647 5883
647 6236
647 7024
648 2912
648 3701
648 3960
648 4590
648 5032
648 5225
648 5884
648 6237
648 7025
649 2913
649 3702
649 3961
649 4591
649 5033
649 5226
649 5885
649 6238
649 7026
650 2914
650 3703
650 3962
650 4592
650 5034
650 5227
650 5886
650 6239
650 7027
651 2915
651 3704
651 3963
651 4593
651 5035
651 5228
651 5887
651 6240
651 7028
652 3004
652 3902
652 4235
652 4882
652 5101
652 5419
652 6080
652 6464
652 7221
653 3005
653 3903
653 4236
653 4883
653 5102
653 5420
653 6081
653 6465
653 7222
654 3006
654 3904
654 4237
654 4884
654 5103
654 5421
654 6082
654 6466
654 7223
655 3007
655 3905
655 4075
655 4885
655 5104
655 5422
655 6083
655 6467
655 7224
656 3008
656 3906
656 4076
656 4886
656 5105
656 5423
656 6084
656 6468
656 7225
657 3009
657 3907
657 4077
657 4887
657 5106
657 5424
657 6085
657 6469
657 7226
658 3010
658 3908
658 4078
658 4888
658 5107
658 5425
658 6086
658 6470
658 7227
659 3011
659 3909
659 4079
659 4889
659 5108
659 5426
659 6087
659 6471
659 7228
660 3012
660 3910
660 4080
660 4727
660 5109
660 5427
660 6088
660 6472
660 7229
661 3013
661 3911
661 4081
661 4728
661 5110
661 5428
661 6089
661 6473
661 7230
662 3014
662 3749
662 4082
662 4729
662 5111
662 5429
662 6090
662 6474
662 7231
663 3015
663 3750
663 4083
663 4730
663 5112
663 5430
663 6091
663 6475
663 7232
664 3016
664 3751
664 4084
664 4731
664 5113
664 5431
664 6092
664 6476
664 7233
665 3017
665 3752
665 4085
665 4732
665 5114
665 5432
665 6093
665 6477
665 7234
666 3018
666 3753
666 4086
666 4733
666 5115
666 5433
666 6094
666 6478
666 7235
667 3019
667 3754
667 4087
667 4734
667 5116
667 5434
667 6095
667 6479
667 7236
668 3020
668 3755
668 4088
668 4735
668 5117
668 5435
668 6096
668 6480
668 7237
669 3021
669 3756
669 4089
669 4736
669 5118
669 5436
669 6097
669 6481
669 7238
670 3022
670 3757
670 4090
670 4737
670 5119
670 5437
670 6098
670 6482
670 7239
671 3023
671 3758
671 4091
671 4738
671 5120
671 5438
671 6099
671 6483
671 7240
672 3024
672 3759
672 4092
672 4739
672 5121
672 5439
672 6100
672 6484
672 7241
673 3025
673 3760
673 4093
673 4740
673 5122
673 5440
673 6101
673 6485
673 7242
674 3026
674 3761
674 4094
674 4741
674 5123
674 5441
674 6102
674 6486
674 7243
675 3027
675 3762
675 4095
675 4742
675 5124
675 5442
675 6103
675 6487
675 7244
676 3028
676 3763
676 4096
676 4743
676 5125
676 5443
676 6104
676 6488
676 7245
677 3029
677 3764
677 4097
677 4744
677 5126
677 5444
677 6105
677 6489
677 7246
678 3030
678 3765
678 4098
678 4745
678 5127
678 5445
678 6106
678 6490
678 7247
679 3031
679 3766
679 4099
679 4746
679 5128
679 5446
679 6107
679 6491
679 7248
680 3032
680 3767
680 4100
680 4747
680 5129
680 5447
680 6108
680 6492
680 7249
681 3033
681 3768
681 4101
681 4748
681 5130
681 5448
681 6109
681 6493
681 7250
682 3034
682 3769
682 4102
682 4749
682 5131
682 5449
682 6110
682 6494
682 7251
683 3035
683 3770
683 4103
683 4750
683 5132
683 5450
683 6111
683 6495
683 7252
684 3036
684 3771
684 4104
684 4751
684 5133
684 5451
684 6112
684 6496
684 7253
685 3037
685 3772
685 4105
685 4752
685 5134
685 5452
685 6113
685 6497
685 7254
686 3038
686 3773
686 4106
686 4753
686 5135
686 5453
686 6114
686 6498
686 7255
687 3039
687 3774
687 4107
687 4754
687 5136
687 5454
687 6115
687 6499
687 7256
688 3040
688 3775
688 4108
688 4755
688 5137
688 5455
688 6116
688 6500
688 7257
689 3041
689 3776
689 4109
689 4756
689 5138
689 5456
689 6117
689 6501
689 7258
690 3042
690 3777
690 4110
690 4757
690 5139
690 5457
690 6118
690 6502
690 7259
691 3043
691 3778
691 4111
691 4758
691 5140
691 5458
691 6119
691 6503
691 7260
692 3044
692 3779
692 4112
692 4759
692 5141
692 5459
692 6120
692 6504
692 7261
693 3045
693 3780
693 4113
693 4760
693 5142
693 5460
693 6121
693 6505
693 7262
694 3046
694 3781
694 4114
694 4761
694 5143
694 5461
694 6122
694 6506
694 7263
695 3047
695 3782
695 4115
695 4762
695 5144
695 5462
695 6123
695 6507
695 7264
696 3048
696 3783
696 4116
696 4763
696 5145
696 5463
696 6124
696 6508
696 7265
697 3049
697 3784
697 4117
697 4764
697 5146
697 5464
697 6125
697 6509
697 7266
698 3050
698 3785
698 4118
698 4765
698 5147
698 5465
698 6126
698 6510
698 7267
699 3051
699 3786
699 4119
699 4766
699 5148
699 5466
699 6127
699 6511
699 7268
700 3052
700 3787
700 4120
700 4767
700 5149
700 5467
700 6128
700 6512
700 7269
701 3053
701 3788
701 4121
701 4768
701 5150
701 5468
701 6129
701 6513
701 7270
702 3054
702 3789
702 4122
702 4769
702 5151
702 5469
702 6130
702 6514
702 7271
703 3055
703 3790
703 4123
703 4770
703 5152
703 5470
703 6131
703 6515
703 7272
704 3056
704 3791
704 4124
704 4771
704 5153
704 5471
704 6132
704 6516
704 7273
705 3057
705 3792
705 4125
705 4772
705 5154
705 5472
705 6133
705 6517
705 7274
706 3058
706 3793
706 4126
706 4773
706 5155
706 5473
706 6134
706 6518
706 7275
707 3059
707 3794
707 4127
707 4774
707 5156
707 5474
707 6135
707 6519
707 7276
708 3060
708 3795
708 4128
708 4775
708 5157
708 5475
708 6136
708 6357
708 7277
709 3061
709 3796
709 4129
709 4776
709 5158
709 5476
709 6137
709 6358
709 7278
710 3062
710 3797
710 4130
710 4777
710 5159
710 5477
710 6138
710 6359
710 7279
711 3063
711 3798
711 4131
711 4778
711 5160
711 5478
711 6139
711 6360
711 7280
712 3064
712 3799
712 4132
712 4779
712 5161
712 5479
712 6140
712 6361
712 7281
713 3065
713 3800
713 4133
713 4780
713 5162
713 5480
713 6141
713 6362
713 7282
714 3066
714 3801
714 4134
714 4781
714 5163
714 5481
714 6142
714 6363
714 7283
715 3067
715 3802
715 4135
715 4782
715 5164
715 5482
715 6143
715 6364
715 7284
716 3068
716 3803
716 4136
716 4783
716 5165
716 5483
716 6144
716 6365
716 7285
717 3069
717 3804
717 4137
717 4784
717 5166
717 5484
717 6145
717 6366
717 7286
718 3070
718 3805
718 4138
718 4785
718 5167
718 5485
718 6146
718 6367
718 7287
719 3071
719 3806
719 4139
719 4786
719 5168
719 5486
719 6147
719 6368
719 7288
720 3072
720 3807
720 4140
720 4787
720 5169
720 5487
720 6148
720 6369
720 7289
721 3073
721 3808
721 4141
721 4788
721 5170
721 5488
721 6149
721 6370
721 7290
722 3074
722 3809
722 4142
722 4789
722 5171
722 5489
722 6150
722 6371
722 7291
723 3075
723 3810
723 4143
723 4790
723 5172
723 5490
723 6151
723 6372
723 7292
724 3076
724 3811
724 4144
724 4791
724 5173
724 5491
724 6152
724 6373
724 7293
725 3077
725 3812
725 4145
725 4792
725 5174
725 5492
725 6153
725 6374
725 7294
726 3078
726 3813
726 4146
726 4793
726 5175
726 5493
726 6154
726 6375
726 7295
727 3079
727 3814
727 4147
727 4794
727 5176
727 5494
727 6155
727 6376
727 7296
728 3080
728 3815
728 4148
728 4795
728 5177
728 5495
728 6156
728 6377
728 7297
729 3081
729 3816
729 4149
729 4796
729 5178
729 5496
729 6157
729 6378
729 7298
730 3082
730 3817
730 4150
730 4797
730 5179
730 5497
730 6158
730 6379
730 7299
731 3083
731 3818
731 4151
731 4798
731 5180
731 5498
731 6159
731 6380
731 7300
732 3084
732 3819
732 4152
732 4799
732 5181
732 5499
732 6160
732 6381
732 7301
733 3085
733 3820
733 4153
733 4800
733 5182
733 5500
733 6161
733 6382
733 7302
734 3086
734 3821
734 4154
734 4801
734 5183
734 5501
734 6162
734 6383
734 7303
735 3087
735 3822
735 4155
735 4802
735 5184
735 5502
735 6163
735 6384
735 7304
736 3088
736 3823
736 4156
736 4803
736 5185
736 5503
736 6164
736 6385
736 7305
737 3089
737 3824
737 4157
737 4804
737 5186
737 5504
737 6165
737 6386
737 7306
738 3090
738 3825
738 4158
738 4805
738 5187
738 5505
738 6166
738 6387
738 7307
739 3091
739 3826
739 4159
739 4806
739 5188
739 5506
739 6167
739 6388
739 7308
740 3092
740 3827
740 4160
740 4807
740 5189
740 5507
740 6168
740 6389
740 7309
741 3093
741 3828
741 4161
741 4808
741 5190
741 5508
741 6169
741 6390
741 7310
742 3094
742 3829
742 4162
742 4809
742 5191
742 5509
742 6170
742 6391
742 7311
743 3095
743 3830
743 4163
743 4810
743 5192
743 5510
743 6171
743 6392
743 7312
744 3096
744 3831
744 4164
744 4811
744 5193
744 5511
744 6172
744 6393
744 7313
745 2934
745 3832
745 4165
745 4812
745 5194
745 5512
745 6173
745 6394
745 7314
746 2935
746 3833
746 4166
746 4813
746 5195
746 5513
746 6174
746 6395
746 7315
747 2936
747 3834
747 4167
747 4814
747 5196
747 5514
747 6175
747 6396
747 7316
748 2937
748 3835
748 4168
748 4815
748 5197
748 5515
748 6176
748 6397
748 7317
749 2938
749 3836
749 4169
749 4816
749 5198
749 5516
749 6177
749 6398
749 7318
750 2939
750 3837
750 4170
750 4817
750 5199
750 5517
750 6178
750 6399
750 7319
751 2940
751 3838
751 4171
751 4818
751 5200
751 5518
751 6179
751 6400
751 7320
752 2941
752 3839
752 4172
752 4819
752 5201
752 5519
752 6180
752 6401
752 7321
753 2942
753 3840
753 4173
753 4820
753 5202
753 5520
753 6181
753 6402
753 7322
754 2943
754 3841
754 4174
754 4821
754 5203
754 5521
754 6182
754 6403
754 7323
755 2944
755 3842
755 4175
755 4822
755 5204
755 5522
755 6183
755 6404
755 7324
756 2945
756 3843
756 4176
756 4823
756 5205
756 5523
756 6184
756 6405
756 7325
757 2946
757 3844
757 4177
757 4824
757 5206
757 5524
757 6185
757 6406
757 7326
758 2947
758 3845
758 4178
758 4825
758 5207
758 5525
758 6186
758 6407
758 7327
759 2948
759 3846
759 4179
759 4826
759 5208
759 5526
759 6187
759 6408
759 7328
760 2949
760 3847
760 4180
760 4827
760 5209
760 5527
760 6188
760 6409
760 7329
761 2950
761 3848
761 4181
761 4828
761 5210
761 5528
761 6189
761 6410
761 7330
762 2951
762 3849
762 4182
762 4829
762 5211
762 5529
762 6190
762 6411
762 7331
763 2952
763 3850
763 4183
763 4830
763 5212
763 5530
763 6191
763 6412
763 7332
764 2953
764 3851
764 4184
764 4831
764 5213
764 5531
764 6192
764 6413
764 7333
765 2954
765 3852
765 4185
765 4832
765 5214
765 5532
765 6193
765 6414
765 7334
766 2955
766 3853
766 4186
766 4833
766 5215
766 5533
766 6031
766 6415
766 7172
767 2956
767 3854
767 4187
767 4834
767 5053
767 5534
767 6032
767 6416
767 7173
768 2957
768 3855
768 4188
768 4835
768 5054
768 5535
768 6033
768 6417
768 7174
769 2958
769 3856
769 4189
769 4836
769 5055
769 5536
769 6034
769 6418
769 7175
770 2959
770 3857
770 4190
770 4837
770 5056
770 5537
770 6035
770 6419
770 7176
771 2960
771 3858
771 4191
771 4838
771 5057
771 5538
771 6036
771 6420
771 7177
772 2961
772 3859
772 4192
772 4839
772 5058
772 5539
772 6037
772 6421
772 7178
773 2962
773 3860
773 4193
773 4840
773 5059
773 5540
773 6038
773 6422
773 7179
774 2963
774 3861
774 4194
774 4841
774 5060
774 5541
774 6039
774 6423
774 7180
775 2964
775 3862
775 4195
775 4842
775 5061
775 5379
775 6040
775 6424
775 7181
776 2965
776 3863
776 4196
776 4843
776 5062
776 5380
776 6041
776 6425
776 7182
777 2966
777 3864
777 4197
777 4844
777 5063
777 5381
777 6042
777 6426
777 7183
778 2967
778 3865
778 4198
778 4845
778 5064
778 5382
778 6043
778 6427
778 7184
779 2968
779 3866
779 4199
779 4846
779 5065
779 5383
779 6044
779 6428
779 7185
780 2969
780 3867
780 4200
780 4847
780 5066
780 5384
780 6045
780 6429
780 7186
781 2970
781 3868
781 4201
781 4848
781 5067
781 5385
781 6046
781 6430
781 7187
782 2971
782 3869
782 4202
782 4849
782 5068
782 5386
782 6047
782 6431
782 7188
783 2972
783 3870
783 4203
783 4850
783 5069
783 5387
783 6048
783 6432
783 7189
784 2973
784 3871
784 4204
784 4851
784 5070
784 5388
784 6049
784 6433
784 7190
785 2974
785 3872
785 4205
785 4852
785 5071
785 5389
785 6050
785 6434
785 7191
786 2975
786 3873
786 4206
786 4853
786 5072
786 5390
786 6051
786 6435
786 7192
787 2976
787 3874
787 4207
787 4854
787 5073
787 5391
787 6052
787 6436
787 7193
788 2977
788 3875
788 4208
788 4855
788 5074
788 5392
788 6053
788 6437
788 7194
789 2978
789 3876
789 4209
789 4856
789 5075
789 5393
789 6054
789 6438
789 7195
790 2979
790 3877
790 4210
790 4857
790 5076
790 5394
790 6055
790 6439
790 7196
791 2980
791 3878
791 4211
791 4858
791 5077
791 5395
791 6056
791 6440
791 7197
792 2981
792 3879
792 4212
792 4859
792 5078
792 5396
792 6057
792 6441
792 7198
793 2982
793 3880
793 4213
793 4860
793 5079
793 5397
793 6058
793 6442
793 7199
794 2983
794 3881
794 4214
794 4861
794 5080
794 5398
794 6059
794 6443
794 7200
795 2984
795 3882
795 4215
795 4862
795 5081
795 5399
795 6060
795 6444
795 7201
796 2985
796 3883
796 4216
796 4863
796 5082
796 5400
796 6061
796 6445
796 7202
797 2986
797 3884
797 4217
797 4864
797 5083
797 5401
797 6062
797 6446
797 7203
798 2987
798 3885
798 4218
798 4865
798 5084
798 5402
798 6063
798 6447
798 7204
799 2988
799 3886
799 4219
799 4866
799 5085
799 5403
799 6064
799 6448
799 7205
800 2989
800 3887
800 4220
800 4867
800 5086
800 5404
800 6065
800 6449
800 7206
801 2990
801 3888
801 4221
801 4868
801 5087
801 5405
801 6066
801 6450
801 7207
802 2991
802 3889
802 4222
802 4869
802 5088
802 5406
802 6067
802 6451
802 7208
803 2992
803 3890
803 4223
803 4870
803 5089
803 5407
803 6068
803 6452
803 7209
804 2993
804 3891
804 4224
804 4871
804 5090
804 5408
804 6069
804 6453
804 7210
805 2994
805 3892
805 4225
805 4872
805 5091
805 5409
805 6070
805 6454
805 7211
806 2995
806 3893
806 4226
806 4873
806 5092
806 5410
806 6071
806 6455
806 7212
807 2996
807 3894
807 4227
807 4874
807 5093
807 5411
807 6072
807 6456
807 7213
808 2997
808 3895
808 4228
808 4875
808 5094
808 5412
808 6073
808 6457
808 7214
809 2998
809 3896
809 4229
809 4876
809 5095
809 5413
809 6074
809 6458
809 7215
810 2999
810 3897
810 4230
810 4877
810 5096
810 5414
810 6075
810 6459
810 7216
811 3000
811 3898
811 4231
811 4878
811 5097
811 5415
811 6076
811 6460
811 7217
812 3001
812 3899
812 4232
812 4879
812 5098
812 5416
812 6077
812 6461
812 7218
813 3002
813 3900
813 4233
813 4880
813 5099
813 5417
813 6078
813 6462
813 7219
814 3003
814 3901
814 4234
814 4881
814 5100
814 5418
814 6079
814 6463
814 7220
815 3187
815 3969
815 4304
815 4903
815 5301
815 5640
815 6257
815 6611
815 7398
816 3188
816 3970
816 4305
816 4904
816 5302
816 5641
816 6258
816 6612
816 7399
817 3189
817 3971
817 4306
817 4905
817 5303
817 5642
817 6259
817 6613
817 7400
818 3190
818 3972
818 4307
818 4906
818 5304
818 5643
818 6260
818 6614
818 7401
819 3191
819 3973
819 4308
819 4907
819 5305
819 5644
819 6261
819 6615
819 7402
820 3192
820 3974
820 4309
820 4908
820 5306
820 5645
820 6262
820 6616
820 7403
821 3193
821 3975
821 4310
821 4909
821 5307
821 5646
821 6263
821 6617
821 7404
822 3194
822 3976
822 4311
822 4910
822 5308
822 5647
822 6264
822 6618
822 7405
823 3195
823 3977
823 4312
823 4911
823 5309
823 5648
823 6265
823 6619
823 7406
824 3196
824 3978
824 4313
824 4912
824 5310
824 5649
824 6266
824 6620
824 7407
825 3197
825 3979
825 4314
825 4913
825 5311
825 5650
825 6267
825 6621
825 7408
826 3198
826 3980
826 4315
826 4914
826 5312
826 5651
826 6268
826 6622
826 7409
827 3199
827 3981
827 4316
827 4915
827 5313
827 5652
827 6269
827 6623
827 7410
828 3200
828 3982
828 4317
828 4916
828 5314
828 5653
828 6270
828 6624
828 7411
829 3201
829 3983
829 4318
829 4917
829 5315
829 5654
829 6271
829 6625
829 7412
830 3202
830 3984
830 4319
830 4918
830 5316
830 5655
830 6272
830 6626
830 7413
831 3203
831 3985
831 4320
831 4919
831 5317
831 5656
831 6273
831 6627
831 7414
832 3204
832 3986
832 4321
832 4920
832 5318
832 5657
832 6274
832 6628
832 7415
833 3205
833 3987
833 4322
833 4921
833 5319
833 5658
833 6275
833 6629
833 7416
834 3206
834 3988
834 4323
834 4922
834 5320
834 5659
834 6276
834 6630
834 7417
835 3207
835 3989
835 4324
835 4923
835 5321
835 5660
835 6277
835 6631
835 7418
836 3208
836 3990
836 4325
836 4924
836 5322
836 5661
836 6278
836 6632
836 7419
837 3209
837 3991
837 4326
837 4925
837 5323
837 5662
837 6279
837 6633
837 7420
838 3210
838 3992
838 4327
838 4926
838 5324
838 5663
838 6280
838 6634
838 7421
839 3211
839 3993
839 4328
839 4927
839 5325
839 5664
839 6281
839 6635
839 7422
840 3212
840 3994
840 4329
840 4928
840 5326
840 5665
840 6282
840 6636
840 7423
841 3213
841 3995
841 4330
841 4929
841 5327
841 5666
841 6283
841 6637
841 7424
842 3214
842 3996
842 4331
842 4930
842 5328
842 5667
842 6284
842 6638
842 7425
843 3215
843 3997
843 4332
843 4931
843 5329
843 5668
843 6285
843 6639
843 7426
844 3216
844 3998
844 4333
844 4932
844 5330
844 5669
844 6286
844 6640
844 7427
845 3217
845 3999
845 4334
845 4933
845 5331
845 5670
845 6287
845 6641
845 7428
846 3218
846 4000
846 4335
846 4934
846 5332
846 5671
846 6288
846 6642
846 7429
847 3219
847 4001
847 4336
847 4935
847 5333
847 5672
847 6289
847 6643
847 7430
848 3220
848 4002
848 4337
848 4936
848 5334
848 5673
848 6290
848 6644
848 7431
849 3221
849 4003
849 4338
849 4937
849 5335
849 5674
849 6291
849 6645
849 7432
850 3222
850 4004
850 4339
850 4938
850 5336
850 5675
850 6292
850 6646
850 7433
851 3223
851 4005
851 4340
851 4939
851 5337
851 5676
851 6293
851 6647
851 7434
852 3224
852 4006
852 4341
852 4940
852 5338
852 5677
852 6294
852 6648
852 7435
853 3225
853 4007
853 4342
853 4941
853 5339
853 5678
853 6295
853 6649
853 7436
854 3226
854 4008
854 4343
854 4942
854 5340
854 5679
854 6296
854 6650
854 7437
855 3227
855 4009
855 4344
855 4943
855 5341
855 5680
855 6297
855 6651
855 7438
856 3228
856 4010
856 4345
856 4944
856 5342
856 5681
856 6298
856 6652
856 7439
857 3229
857 4011
857 4346
857 4945
857 5343
857 5682
857 6299
857 6653
857 7440
858 3230
858 4012
858 4347
858 4946
858 5344
858 5683
858 6300
858 6654
858 7441
859 3231
859 4013
859 4348
859 4947
859 5345
859 5684
859 6301
859 6655
859 7442
860 3232
860 4014
860 4349
860 4948
860 5346
860 5685
860 6302
860 6656
860 7443
861 3233
861 4015
861 4350
861 4949
861 5347
861 5686
861 6303
861 6657
861 7444
862 3234
862 4016
862 4351
862 4950
862 5348
862 5687
862 6304
862 6658
862 7445
863 3235
863 4017
863 4352
863 4951
863 5349
863 5688
863 6305
863 6659
863 7446
864 3236
864 4018
864 4353
864 4952
864 5350
864 5689
864 6306
864 6660
864 7447
865 3237
865 4019
865 4354
865 4953
865 5351
865 5690
865 6307
865 6661
865 7448
866 3238
866 4020
866 4355
866 4954
866 5352
866 5691
866 6308
866 6662
866 7449
867 3239
867 4021
867 4356
867 4955
867 5353
867 5692
867 6309
867 6663
867 7450
868 3240
868 4022
868 4357
868 4956
868 5354
868 5693
868 6310
868 6664
868 7451
869 3241
869 4023
869 4358
869 4957
869 5355
869 5694
869 6311
869 6665
869 7452
870 3242
870 4024
870 4359
870 4958
870 5356
870 5695
870 6312
870 6666
870 7453
871 3243
871 4025
871 4360
871 4959
871 5357
871 5696
871 6313
871 6667
871 7454
872 3244
872 4026
872 4361
872 4960
872 5358
872 5697
872 6314
872 6668
872 7455
873 3245
873 4027
873 4362
873 4961
873 5359
873 5698
873 6315
873 6669
873 7456
874 3246
874 4028
874 4363
874 4962
874 5360
874 5699
874 6316
874 6670
874 7457
875 3247
875 4029
875 4364
875 4963
875 5361
875 5700
875 6317
875 6671
875 7458
876 3248
876 4030
876 4365
876 4964
876 5362
876 5701
876 6318
876 6672
876 7459
877 3249
877 4031
877 4366
877 4965
877 5363
877 5702
877 6319
877 6673
877 7460
878 3250
878 4032
878 4367
878 4966
878 5364
878 5703
878 6320
878 6674
878 7461
879 3251
879 4033
879 4368
879 4967
879 5365
879 5704
879 6321
879 6675
879 7462
880 3252
880 4034
880 4369
880 4968
880 5366
880 5542
880 6322
880 6676
880 7463
881 3253
881 4035
881 4370
881 4969
881 5367
881 5543
881 6323
881 6677
881 7464
882 3254
882 4036
882 4371
882 4970
882 5368
882 5544
882 6324
882 6678
882 7465
883 3255
883 4037
883 4372
883 4971
883 5369
883 5545
883 6325
883 6679
883 7466
884 3256
884 4038
884 4373
884 4972
884 5370
884 5546
884 6326
884 6680
884 7467
885 3257
885 4039
885 4374
885 4973
885 5371
885 5547
885 6327
885 6681
885 7468
886 3258
886 4040
886 4375
886 4974
886 5372
886 5548
886 6328
886 6682
886 7469
887 3259
887 4041
887 4376
887 4975
887 5373
887 5549
887 6329
887 6520
887 7470
888 3097
888 4042
888 4377
888 4976
888 5374
888 5550
888 6330
888 6521
888 7471
889 3098
889 4043
889 4378
889 4977
889 5375
889 5551
889 6331
889 6522
889 7472
890 3099
890 4044
890 4379
890 4978
890 5376
890 5552
890 6332
890 6523
890 7473
891 3100
891 4045
891 4380
891 4979
891 5377
891 5553
891 6333
891 6524
891 7474
892 3101
892 4046
892 4381
892 4980
892 5378
892 5554
892 6334
892 6525
892 7475
893 3102
893 4047
893 4382
893 4981
893 5216
893 5555
893 6335
893 6526
893 7476
894 3103
894 4048
894 4383
894 4982
894 5217
894 5556
894 6336
894 6527
894 7477
895 3104
895 4049
895 4384
895 4983
895 5218
895 5557
895 6337
895 6528
895 7478
896 3105
896 4050
896 4385
896 4984
896 5219
896 5558
896 6338
896 6529
896 7479
897 3106
897 4051
897 4386
897 4985
897 5220
897 5559
897 6339
897 6530
897 7480
898 3107
898 4052
898 4387
898 4986
898 5221
898 5560
898 6340
898 6531
898 7481
899 3108
899 4053
899 4388
899 4987
899 5222
899 5561
899 6341
899 6532
899 7482
900 3109
900 4054
900 4389
900 4988
900 5223
900 5562
900 6342
900 6533
900 7483
901 3110
901 4055
901 4390
901 4989
901 5224
901 5563
901 6343
901 6534
901 7484
902 3111
902 4056
902 4391
902 4990
902 5225
902 5564
902 6344
902 6535
902 7485
903 3112
903 4057
903 4392
903 4991
903 5226
903 5565
903 6345
903 6536
903 7486
904 3113
904 4058
904 4393
904 4992
904 5227
904 5566
904 6346
904 6537
904 7487
905 3114
905 4059
905 4394
905 4993
905 5228
905 5567
905 6347
905 6538
905 7488
906 3115
906 4060
906 4395
906 4994
906 5229
906 5568
906 6348
906 6539
906 7489
907 3116
907 4061
907 4396
907 4995
907 5230
907 5569
907 6349
907 6540
907 7490
908 3117
908 4062
908 4397
908 4996
908 5231
908 5570
908 6350
908 6541
908 7491
909 3118
909 4063
909 4398
909 4997
909 5232
909 5571
909 6351
909 6542
909 7492
910 3119
910 4064
910 4399
910 4998
910 5233
910 5572
910 6352
910 6543
910 7493
911 3120
911 4065
911 4400
911 4999
911 5234
911 5573
911 6353
911 6544
911 7494
912 3121
912 4066
912 4238
912 5000
912 5235
912 5574
912 6354
912 6545
912 7495
913 3122
913 4067
913 4239
913 5001
913 5236
913 5575
913 6355
913 6546
913 7496
914 3123
914 4068
914 4240
914 5002
914 5237
914 5576
914 6356
914 6547
914 7497
915 3124
915 4069
915 4241
915 5003
915 5238
915 5577
915 6194
915 6548
915 7335
916 3125
916 4070
916 4242
916 5004
916 5239
916 5578
916 6195
916 6549
916 7336
917 3126
917 4071
917 4243
917 5005
917 5240
917 5579
917 6196
917 6550
917 7337
918 3127
918 4072
918 4244
918 5006
918 5241
918 5580
918 6197
918 6551
918 7338
919 3128
919 4073
919 4245
919 5007
919 5242
919 5581
919 6198
919 6552
919 7339
920 3129
920 4074
920 4246
920 5008
920 5243
920 5582
920 6199
920 6553
920 7340
921 3130
921 3912
921 4247
921 5009
921 5244
921 5583
921 6200
921 6554
921 7341
922 3131
922 3913
922 4248
922 5010
922 5245
922 5584
922 6201
922 6555
922 7342
923 3132
923 3914
923 4249
923 5011
923 5246
923 5585
923 6202
923 6556
923 7343
924 3133
924 3915
924 4250
924 5012
924 5247
924 5586
924 6203
924 6557
924 7344
925 3134
925 3916
925 4251
925 5013
925 5248
925 5587
925 6204
925 6558
925 7345
926 3135
926 3917
926 4252
926 5014
926 5249
926 5588
926 6205
926 6559
926 7346
927 3136
927 3918
927 4253
927 5015
927 5250
927 5589
927 6206
927 6560
927 7347
928 3137
928 3919
928 4254
928 5016
928 5251
928 5590
928 6207
928 6561
928 7348
929 3138
929 3920
929 4255
929 5017
929 5252
929 5591
929 6208
929 6562
929 7349
930 3139
930 3921
930 4256
930 5018
930 5253
930 5592
930 6209
930 6563
930 7350
931 3140
931 3922
931 4257
931 5019
931 5254
931 5593
931 6210
931 6564
931 7351
932 3141
932 3923
932 4258
932 5020
932 5255
932 5594
932 6211
932 6565
932 7352
933 3142
933 3924
933 4259
933 5021
933 5256
933 5595
933 6212
933 6566
933 7353
934 3143
934 3925
934 4260
934 5022
934 5257
934 5596
934 6213
934 6567
934 7354
935 3144
935 3926
935 4261
935 5023
935 5258
935 5597
935 6214
935 6568
935 7355
936 3145
936 3927
936 4262
936 5024
936 5259
936 5598
936 6215
936 6569
936 7356
937 3146
937 3928
937 4263
937 5025
937 5260
937 5599
937 6216
937 6570
937 7357
938 3147
938 3929
938 4264
938 5026
938 5261
938 5600
938 6217
938 6571
938 7358
939 3148
939 3930
939 4265
939 5027
939 5262
939 5601
939 6218
939 6572
939 7359
940 3149
940 3931
940 4266
940 5028
940 5263
940 5602
940 6219
940 6573
940 7360
941 3150
941 3932
941 4267
941 5029
941 5264
941 5603
941 6220
941 6574
941 7361
942 3151
942 3933
942 4268
942 5030
942 5265
942 5604
942 6221
942 6575
942 7362
943 3152
943 3934
943 4269
943 5031
943 5266
943 5605
943 6222
943 6576
943 7363
944 3153
944 3935
944 4270
944 5032
944 5267
944 5606
944 6223
944 6577
944 7364
945 3154
945 3936
945 4271
945 5033
945 5268
945 5607
945 6224
945 6578
945 7365
946 3155
946 3937
946 4272
946 5034
946 5269
946 5608
946 6225
946 6579
946 7366
947 3156
947 3938
947 4273
947 5035
947 5270
947 5609
947 6226
947 6580
947 7367
948 3157
948 3939
948 4274
948 5036
948 5271
948 5610
948 6227
948 6581
948 7368
949 3158
949 3940
949 4275
949 5037
949 5272
949 5611
949 6228
949 6582
949 7369
950 3159
950 3941
950 4276
950 5038
950 5273
950 5612
950 6229
950 6583
950 7370
951 3160
951 3942
951 4277
951 5039
951 5274
951 5613
951 6230
951 6584
951 7371
952 3161
952 3943
952 4278
952 5040
952 5275
952 5614
952 6231
952 6585
952 7372
953 3162
953 3944
953 4279
953 5041
953 5276
953 5615
953 6232
953 6586
953 7373
954 3163
954 3945
954 4280
954 5042
954 5277
954 5616
954 6233
954 6587
954 7374
955 3164
955 3946
955 4281
955 5043
955 5278
955 5617
955 6234
955 6588
955 7375
956 3165
956 3947
956 4282
956 5044
956 5279
956 5618
956 6235
956 6589
956 7376
957 3166
957 3948
957 4283
957 5045
957 5280
957 5619
957 6236
957 6590
957 7377
958 3167
958 3949
958 4284
958 5046
958 5281
958 5620
958 6237
958 6591
958 7378
959 3168
959 3950
959 4285
959 5047
959 5282
959 5621
959 6238
959 6592
959 7379
960 3169
960 3951
960 4286
960 5048
960 5283
960 5622
960 6239
960 6593
960 7380
961 3170
961 3952
961 4287
961 5049
961 5284
961 5623
961 6240
961 6594
961 7381
962 3171
962 3953
962 4288
962 5050
962 5285
962 5624
962 6241
962 6595
962 7382
963 3172
963 3954
963 4289
963 5051
963 5286
963 5625
963 6242
963 6596
963 7383
964 3173
964 3955
964 4290
964 5052
964 5287
964 5626
964 6243
964 6597
964 7384
965 3174
965 3956
965 4291
965 4890
965 5288
965 5627
965 6244
965 6598
965 7385
966 3175
966 3957
966 4292
966 4891
966 5289
966 5628
966 6245
966 6599
966 7386
967 3176
967 3958
967 4293
967 4892
967 5290
967 5629
967 6246
967 6600
967 7387
968 3177
968 3959
968 4294
968 4893
968 5291
968 5630
968 6247
968 6601
968 7388
969 3178
969 3960
969 4295
969 4894
969 5292
969 5631
969 6248
969 6602
969 7389
970 3179
970 3961
970 4296
970 4895
970 5293
970 5632
970 6249
970 6603
970 7390
971 3180
971 3962
971 4297
971 4896
971 5294
971 5633
971 6250
971 6604
971 7391
972 3181
972 3963
972 4298
972 4897
972 5295
972 5634
972 6251
972 6605
972 7392
973 3182
973 3964
973 4299
973 4898
973 5296
973 5635
973 6252
973 6606
973 7393
974 3183
974 3965
974 4300
974 4899
974 5297
974 5636
974 6253
974 6607
974 7394
975 3184
975 3966
975 4301
975 4900
975 5298
975 5637
975 6254
975 6608
975 7395
976 3185
976 3967
976 4302
976 4901
976 5299
976 5638
976 6255
976 6609
976 7396
977 3186
977 3968
977 4303
977 4902
977 5300
977 5639
977 6256
977 6610
977 7397
978 3399
978 4125
978 4416
978 5093
978 5465
978 5831
978 6438
978 6800
978 7579
979 3400
979 4126
979 4417
979 5094
979 5466
979 5832
979 6439
979 6801
979 7580
980 3401
980 4127
980 4418
980 5095
980 5467
980 5833
980 6440
980 6802
980 7581
981 3402
981 4128
981 4419
981 5096
981 5468
981 5834
981 6441
981 6803
981 7582
982 3403
982 4129
982 4420
982 5097
982 5469
982 5835
982 6442
982 6804
982 7583
983 3404
983 4130
983 4421
983 5098
983 5470
983 5836
983 6443
983 6805
983 7584
984 3405
984 4131
984 4422
984 5099
984 5471
984 5837
984 6444
984 6806
984 7585
985 3406
985 4132
985 4423
985 5100
985 5472
985 5838
985 6445
985 6807
985 7586
986 3407
986 4133
986 4424
986 5101
986 5473
986 5839
986 6446
986 6808
986 7587
987 3408
987 4134
987 4425
987 5102
987 5474
987 5840
987 6447
987 6809
987 7588
988 3409
988 4135
988 4426
988 5103
988 5475
988 5841
988 6448
988 6810
988 7589
989 3410
989 4136
989 4427
989 5104
989 5476
989 5842
989 6449
989 6811
989 7590
990 3411
990 4137
990 4428
990 5105
990 5477
990 5843
990 6450
990 6812
990 7591
991 3412
991 4138
991 4429
991 5106
991 5478
991 5844
991 6451
991 6813
991 7592
992 3413
992 4139
992 4430
992 5107
992 5479
992 5845
992 6452
992 6814
992 7593
993 3414
993 4140
993 4431
993 5108
993 5480
993 5846
993 6453
993 6815
993 7594
994 3415
994 4141
994 4432
994 5109
994 5481
994 5847
994 6454
994 6816
994 7595
995 3416
995 4142
995 4433
995 5110
995 5482
995 5848
995 6455
995 6817
995 7596
996 3417
996 4143
996 4434
996 5111
996 5483
996 5849
996 6456
996 6818
996 7597
997 3418
997 4144
997 4435
997 5112
997 5484
997 5850
997 6457
997 6819
997 7598
998 3419
998 4145
998 4436
998 5113
998 5485
998 5851
998 6458
998 6820
998 7599
999 3420
999 4146
999 4437
999 5114
999 5486
999 5852
999 6459
999 6821
999 7600
1000 3421
1000 4147
1000 4438
1000 5115
1000 5487
1000 5853
1000 6460
1000 6822
1000 7601
1001 3422
1001 4148
1001 4439
1001 5116
1001 5488
1001 5854
1001 6461
1001 6823
1001 7602
1002 3260
1002 4149
1002 4440
1002 5117
1002 5489
1002 5855
1002 6462
1002 6824
1002 7603
1003 3261
1003 4150
1003 4441
1003 5118
1003 5490
1003 5856
1003 6463
1003 6825
1003 7604
1004 3262
1004 4151
1004 4442
1004 5119
1004 5491
1004 5857
1004 6464
1004 6826
1004 7605
1005 3263
1005 4152
1005 4443
1005 5120
1005 5492
1005 5858
1005 6465
1005 6827
1005 7606
1006 3264
1006 4153
1006 4444
1006 5121
1006 5493
1006 5859
1006 6466
1006 6828
1006 7607
1007 3265
1007 4154
1007 4445
1007 5122
1007 5494
1007 5860
1007 6467
1007 6829
1007 7608
1008 3266
1008 4155
1008 4446
1008 5123
1008 5495
1008 5861
1008 6468
1008 6830
1008 7609
1009 3267
1009 4156
1009 4447
1009 5124
1009 5496
1009 5862
1009 6469
1009 6831
1009 7610
1010 3268
1010 4157
1010 4448
1010 5125
1010 5497
1010 5863
1010 6470
1010 6832
1010 7611
1011 3269
1011 4158
1011 4449
1011 5126
1011 5498
1011 5864
1011 6471
1011 6833
1011 7612
1012 3270
1012 4159
1012 4450
1012 5127
1012 5499
1012 5865
1012 6472
1012 6834
1012 7613
1013 3271
1013 4160
1013 4451
1013 5128
1013 5500
1013 5866
1013 6473
1013 6835
1013 7614
1014 3272
1014 4161
1014 4452
1014 5129
1014 5501
1014 5867
1014 6474
1014 6836
1014 7615
1015 3273
1015 4162
1015 4453
1015 5130
1015 5502
1015 5705
1015 6475
1015 6837
1015 7616
1016 3274
1016 4163
1016 4454
1016 5131
1016 5503
1016 5706
1016 6476
1016 6838
1016 7617
1017 3275
1017 4164
1017 4455
1017 5132
1017 5504
1017 5707
1017 6477
1017 6839
1017 7618
1018 3276
1018 4165
1018 4456
1018 5133
1018 5505
1018 5708
1018 6478
1018 6840
1018 7619
1019 3277
1019 4166
1019 4457
1019 5134
1019 5506
1019 5709
1019 6479
1019 6841
1019 7620
1020 3278
1020 4167
1020 4458
1020 5135
1020 5507
1020 5710
1020 6480
1020 6842
1020 7621
1021 3279
1021 4168
1021 4459
1021 5136
1021 5508
1021 5711
1021 6481
1021 6843
1021 7622
1022 3280
1022 4169
1022 4460
1022 5137
1022 5509
1022 5712
1022 6482
1022 6844
1022 7623
1023 3281
1023 4170
1023 4461
1023 5138
1023 5510
1023 5713
1023 6483
1023 6845
1023 7624
1024 3282
1024 4171
1024 4462
1024 5139
1024 5511
1024 5714
1024 6484
1024 6683
1024 7625
1025 3283
1025 4172
1025 4463
1025 5140
1025 5512
1025 5715
1025 6485
1025 6684
1025 7626
1026 3284
1026 4173
1026 4464
1026 5141
1026 5513
1026 5716
1026 6486
1026 6685
1026 7627
1027 3285
1027 4174
1027 4465
1027 5142
1027 5514
1027 5717
1027 6487
1027 6686
1027 7628
1028 3286
1028 4175
1028 4466
1028 5143
1028 5515
1028 5718
1028 6488
1028 6687
1028 7629
1029 3287
1029 4176
1029 4467
1029 5144
1029 5516
1029 5719
1029 6489
1029 6688
1029 7630
1030 3288
1030 4177
1030 4468
1030 5145
1030 5517
1030 5720
1030 6490
1030 6689
1030 7631
1031 3289
1031 4178
1031 4469
1031 5146
1031 5518
1031 5721
1031 6491
1031 6690
1031 7632
1032 3290
1032 4179
1032 4470
1032 5147
1032 5519
1032 5722
1032 6492
1032 6691
1032 7633
1033 3291
1033 4180
1033 4471
1033 5148
1033 5520
1033 5723
1033 6493
1033 6692
1033 7634
1034 3292
1034 4181
1034 4472
1034 5149
1034 5521
1034 5724
1034 6494
1034 6693
1034 7635
1035 3293
1035 4182
1035 4473
1035 5150
1035 5522
1035 5725
1035 6495
1035 6694
1035 7636
1036 3294
1036 4183
1036 4474
1036 5151
1036 5523
1036 5726
1036 6496
1036 6695
1036 7637
1037 3295
1037 4184
1037 4475
1037 5152
1037 5524
1037 5727
1037 6497
1037 6696
1037 7638
1038 3296
1038 4185
1038 4476
1038 5153
1038 5525
1038 5728
1038 6498
1038 6697
1038 7639
1039 3297
1039 4186
1039 4477
1039 5154
1039 5526
1039 5729
1039 6499
1039 6698
1039 7640
1040 3298
1040 4187
1040 4478
1040 5155
1040 5527
1040 5730
1040 6500
1040 6699
1040 7641
1041 3299
1041 4188
1041 4479
1041 5156
1041 5528
1041 5731
1041 6501
1041 6700
1041 7642
1042 3300
1042 4189
1042 4480
1042 5157
1042 5529
1042 5732
1042 6502
1042 6701
1042 7643
1043 3301
1043 4190
1043 4481
1043 5158
1043 5530
1043 5733
1043 6503
1043 6702
1043 7644
1044 3302
1044 4191
1044 4482
1044 5159
1044 5531
1044 5734
1044 6504
1044 6703
1044 7645
1045 3303
1045 4192
1045 4483
1045 5160
1045 5532
1045 5735
1045 6505
1045 6704
1045 7646
1046 3304
1046 4193
1046 4484
1046 5161
1046 5533
1046 5736
1046 6506
1046 6705
1046 7647
1047 3305
1047 4194
1047 4485
1047 5162
1047 5534
1047 5737
1047 6507
1047 6706
1047 7648
1048 3306
1048 4195
1048 4486
1048 5163
1048 5535
1048 5738
1048 6508
1048 6707
1048 7649
1049 3307
1049 4196
1049 4487
1049 5164
1049 5536
1049 5739
1049 6509
1049 6708
1049 7650
1050 3308
1050 4197
1050 4488
1050 5165
1050 5537
1050 5740
1050 6510
1050 6709
1050 7651
1051 3309
1051 4198
1051 4489
1051 5166
1051 5538
1051 5741
1051 6511
1051 6710
1051 7652
1052 3310
1052 4199
1052 4490
1052 5167
1052 5539
1052 5742
1052 6512
1052 6711
1052 7653
1053 3311
1053 4200
1053 4491
1053 5168
1053 5540
1053 5743
1053 6513
1053 6712
1053 7654
1054 3312
1054 4201
1054 4492
1054 5169
1054 5541
1054 5744
1054 6514
1054 6713
1054 7655
1055 3313
1055 4202
1055 4493
1055 5170
1055 5379
1055 5745
1055 6515
1055 6714
1055 7656
1056 3314
1056 4203
1056 4494
1056 5171
1056 5380
1056 5746
1056 6516
1056 6715
1056 7657
1057 3315
1057 4204
1057 4495
1057 5172
1057 5381
1057 5747
1057 6517
1057 6716
1057 7658
1058 3316
1058 4205
1058 4496
1058 5173
1058 5382
1058 5748
1058 6518
1058 6717
1058 7659
1059 3317
1059 4206
1059 4497
1059 5174
1059 5383
1059 5749
1059 6519
1059 6718
1059 7660
1060 3318
1060 4207
1060 4498
1060 5175
1060 5384
1060 5750
1060 6357
1060 6719
1060 7498
1061 3319
1061 4208
1061 4499
1061 5176
1061 5385
1061 5751
1061 6358
1061 6720
1061 7499
1062 3320
1062 4209
1062 4500
1062 5177
1062 5386
1062 5752
1062 6359
1062 6721
1062 7500
1063 3321
1063 4210
1063 4501
1063 5178
1063 5387
1063 5753
1063 6360
1063 6722
1063 7501
1064 3322
1064 4211
1064 4502
1064 5179
1064 5388
1064 5754
1064 6361
1064 6723
1064 7502
1065 3323
1065 4212
1065 4503
1065 5180
1065 5389
1065 5755
1065 6362
1065 6724
1065 7503
1066 3324
1066 4213
1066 4504
1066 5181
1066 5390
1066 5756
1066 6363
1066 6725
1066 7504
1067 3325
1067 4214
1067 4505
1067 5182
1067 5391
1067 5757
1067 6364
1067 6726
1067 7505
1068 3326
1068 4215
1068 4506
1068 5183
1068 5392
1068 5758
1068 6365
1068 6727
1068 7506
1069 3327
1069 4216
1069 4507
1069 5184
1069 5393
1069 5759
1069 6366
1069 6728
1069 7507
1070 3328
1070 4217
1070 4508
1070 5185
1070 5394
1070 5760
1070 6367
1070 6729
1070 7508
1071 3329
1071 4218
1071 4509
1071 5186
1071 5395
1071 5761
1071 6368
1071 6730
1071 7509
1072 3330
1072 4219
1072 4510
1072 5187
1072 5396
1072 5762
1072 6369
1072 6731
1072 7510
1073 3331
1073 4220
1073 4511
1073 5188
1073 5397
1073 5763
1073 6370
1073 6732
1073 7511
1074 3332
1074 4221
1074 4512
1074 5189
1074 5398
1074 5764
1074 6371
1074 6733
1074 7512
1075 3333
1075 4222
1075 4513
1075 5190
1075 5399
1075 5765
1075 6372
1075 6734
1075 7513
1076 3334
1076 4223
1076 4514
1076 5191
1076 5400
1076 5766
1076 6373
1076 6735
1076 7514
1077 3335
1077 4224
1077 4515
1077 5192
1077 5401
1077 5767
1077 6374
1077 6736
1077 7515
1078 3336
1078 4225
1078 4516
1078 5193
1078 5402
1078 5768
1078 6375
1078 6737
1078 7516
1079 3337
1079 4226
1079 4517
1079 5194
1079 5403
1079 5769
1079 6376
1079 6738
1079 7517
1080 3338
1080 4227
1080 4518
1080 5195
1080 5404
1080 5770
1080 6377
1080 6739
1080 7518
1081 3339
1081 4228
1081 4519
1081 5196
1081 5405
1081 5771
1081 6378
1081 6740
1081 7519
1082 3340
1082 4229
1082 4520
1082 5197
1082 5406
1082 5772
1082 6379
1082 6741
1082 7520
1083 3341
1083 4230
1083 4521
1083 5198
1083 5407
1083 5773
1083 6380
1083 6742
1083 7521
1084 3342
1084 4231
1084 4522
1084 5199
1084 5408
1084 5774
1084 6381
1084 6743
1084 7522
1085 3343
1085 4232
1085 4523
1085 5200
1085 5409
1085 5775
1085 6382
1085 6744
1085 7523
1086 3344
1086 4233
1086 4524
1086 5201
1086 5410
1086 5776
1086 6383
1086 6745
1086 7524
1087 3345
1087 4234
1087 4525
1087 5202
1087 5411
1087 5777
1087 6384
1087 6746
1087 7525
1088 3346
1088 4235
1088 4526
1088 5203
1088 5412
1088 5778
1088 6385
1088 6747
1088 7526
1089 3347
1089 4236
1089 4527
1089 5204
1089 5413
1089 5779
1089 6386
1089 6748
1089 7527
1090 3348
1090 4237
1090 4528
1090 5205
1090 5414
1090 5780
1090 6387
1090 6749
1090 7528
1091 3349
1091 4075
1091 4529
1091 5206
1091 5415
1091 5781
1091 6388
1091 6750
1091 7529
1092 3350
1092 4076
1092 4530
1092 5207
1092 5416
1092 5782
1092 6389
1092 6751
1092 7530
1093 3351
1093 4077
1093 4531
1093 5208
1093 5417
1093 5783
1093 6390
1093 6752
1093 7531
1094 3352
1094 4078
1094 4532
1094 5209
1094 5418
1094 5784
1094 6391
1094 6753
1094 7532
1095 3353
1095 4079
1095 4533
1095 5210
1095 5419
1095 5785
1095 6392
1095 6754
1095 7533
1096 3354
1096 4080
1096 4534
1096 5211
1096 5420
1096 5786
1096 6393
1096 6755
1096 7534
1097 3355
1097 4081
1097 4535
1097 5212
1097 5421
1097 5787
1097 6394
1097 6756
1097 7535
1098 3356
1098 4082
1098 4536
1098 5213
1098 5422
1098 5788
1098 6395
1098 6757
1098 7536
1099 3357
1099 4083
1099 4537
1099 5214
1099 5423
1099 5789
1099 6396
1099 6758
1099 7537
1100 3358
1100 4084
1100 4538
1100 5215
1100 5424
1100 5790
1100 6397
1100 6759
1100 7538
1101 3359
1101 4085
1101 4539
1101 5053
1101 5425
1101 5791
1101 6398
1101 6760
1101 7539
1102 3360
1102 4086
1102 4540
1102 5054
1102 5426
1102 5792
1102 6399
1102 6761
1102 7540
1103 3361
1103 4087
1103 4541
1103 5055
1103 5427
1103 5793
1103 6400
1103 6762
1103 7541
1104 3362
1104 4088
1104 4542
1104 5056
1104 5428
1104 5794
1104 6401
1104 6763
1104 7542
1105 3363
1105 4089
1105 4543
1105 5057
1105 5429
1105 5795
1105 6402
1105 6764
1105 7543
1106 3364
1106 4090
1106 4544
1106 5058
1106 5430
1106 5796
1106 6403
1106 6765
1106 7544
1107 3365
1107 4091
1107 4545
1107 5059
1107 5431
1107 5797
1107 6404
1107 6766
1107 7545
1108 3366
1108 4092
1108 4546
1108 5060
1108 5432
1108 5798
1108 6405
1108 6767
1108 7546
1109 3367
1109 4093
1109 4547
1109 5061
1109 5433
1109 5799
1109 6406
1109 6768
1109 7547
1110 3368
1110 4094
1110 4548
1110 5062
1110 5434
1110 5800
1110 6407
1110 6769
1110 7548
1111 3369
1111 4095
1111 4549
1111 5063
1111 5435
1111 5801
1111 6408
1111 6770
1111 7549
1112 3370
1112 4096
1112 4550
1112 5064
1112 5436
1112 5802
1112 6409
1112 6771
1112 7550
1113 3371
1113 4097
1113 4551
1113 5065
1113 5437
1113 5803
1113 6410
1113 6772
1113 7551
1114 3372
1114 4098
1114 4552
1114 5066
1114 5438
1114 5804
1114 6411
1114 6773
1114 7552
1115 3373
1115 4099
1115 4553
1115 5067
1115 5439
1115 5805
1115 6412
1115 6774
1115 7553
1116 3374
1116 4100
1116 4554
1116 5068
1116 5440
1116 5806
1116 6413
1116 6775
1116 7554
1117 3375
1117 4101
1117 4555
1117 5069
1117 5441
1117 5807
1117 6414
1117 6776
1117 7555
1118 3376
1118 4102
1118 4556
1118 5070
1118 5442
1118 5808
1118 6415
1118 6777
1118 7556
1119 3377
1119 4103
1119 4557
1119 5071
1119 5443
1119 5809
1119 6416
1119 6778
1119 7557
1120 3378
1120 4104
1120 4558
1120 5072
1120 5444
1120 5810
1120 6417
1120 6779
1120 7558
1121 3379
1121 4105
1121 4559
1121 5073
1121 5445
1121 5811
1121 6418
1121 6780
1121 7559
1122 3380
1122 4106
1122 4560
1122 5074
1122 5446
1122 5812
1122 6419
1122 6781
1122 7560
1123 3381
1123 4107
1123 4561
1123 5075
1123 5447
1123 5813
1123 6420
1123 6782
1123 7561
1124 3382
1124 4108
1124 4562
1124 5076
1124 5448
1124 5814
1124 6421
1124 6783
1124 7562
1125 3383
1125 4109
1125 4563
1125 5077
1125 5449
1125 5815
1125 6422
1125 6784
1125 7563
1126 3384
1126 4110
1126 4401
1126 5078
1126 5450
1126 5816
1126 6423
1126 6785
1126 7564
1127 3385
1127 4111
1127 4402
1127 5079
1127 5451
1127 5817
1127 6424
1127 6786
1127 7565
1128 3386
1128 4112
1128 4403
1128 5080
1128 5452
1128 5818
1128 6425
1128 6787
1128 7566
1129 3387
1129 4113
1129 4404
1129 5081
1129 5453
1129 5819
1129 6426
1129 6788
1129 7567
1130 3388
1130 4114
1130 4405
1130 5082
1130 5454
1130 5820
1130 6427
1130 6789
1130 7568
1131 3389
1131 4115
1131 4406
1131 5083
1131 5455
1131 5821
1131 6428
1131 6790
1131 7569
1132 3390
1132 4116
1132 4407
1132 5084
1132 5456
1132 5822
1132 6429
1132 6791
1132 7570
1133 3391
1133 4117
1133 4408
1133 5085
1133 5457
1133 5823
1133 6430
1133 6792
1133 7571
1134 3392
1134 4118
1134 4409
1134 5086
1134 5458
1134 5824
1134 6431
1134 6793
1134 7572
1135 3393
1135 4119
1135 4410
1135 5087
1135 5459
1135 5825
1135 6432
1135 6794
1135 7573
1136 3394
1136 4120
1136 4411
1136 5088
1136 5460
1136 5826
1136 6433
1136 6795
1136 7574
1137 3395
1137 4121
1137 4412
1137 5089
1137 5461
1137 5827
1137 6434
1137 6796
1137 7575
1138 3396
1138 4122
1138 4413
1138 5090
1138 5462
1138 5828
1138 6435
1138 6797
1138 7576
1139 3397
1139 4123
1139 4414
1139 5091
1139 5463
1139 5829
1139 6436
1139 6798
1139 7577
1140 3398
1140 4124
1140 4415
1140 5092
1140 5464
1140 5830
1140 6437
1140 6799
1140 7578
1141 3462
1141 4279
1141 4723
1141 5314
1141 5606
1141 6030
1141 6531
1141 6880
1141 7672
1142 3463
1142 4280
1142 4724
1142 5315
1142 5607
1142 5868
1142 6532
1142 6881
1142 7673
1143 3464
1143 4281
1143 4725
1143 5316
1143 5608
1143 5869
1143 6533
1143 6882
1143 7674
1144 3465
1144 4282
1144 4726
1144 5317
1144 5609
1144 5870
1144 6534
1144 6883
1144 7675
1145 3466
1145 4283
1145 4564
1145 5318
1145 5610
1145 5871
1145 6535
1145 6884
1145 7676
1146 3467
1146 4284
1146 4565
1146 5319
1146 5611
1146 5872
1146 6536
1146 6885
1146 7677
1147 3468
1147 4285
1147 4566
1147 5320
1147 5612
1147 5873
1147 6537
1147 6886
1147 7678
1148 3469
1148 4286
1148 4567
1148 5321
1148 5613
1148 5874
1148 6538
1148 6887
1148 7679
1149 3470
1149 4287
1149 4568
1149 5322
1149 5614
1149 5875
1149 6539
1149 6888
1149 7680
1150 3471
1150 4288
1150 4569
1150 5323
1150 5615
1150 5876
1150 6540
1150 6889
1150 7681
1151 3472
1151 4289
1151 4570
1151 5324
1151 5616
1151 5877
1151 6541
1151 6890
1151 7682
1152 3473
1152 4290
1152 4571
1152 5325
1152 5617
1152 5878
1152 6542
1152 6891
1152 7683
1153 3474
1153 4291
1153 4572
1153 5326
1153 5618
1153 5879
1153 6543
1153 6892
1153 7684
1154 3475
1154 4292
1154 4573
1154 5327
1154 5619
1154 5880
1154 6544
1154 6893
1154 7685
1155 3476
1155 4293
1155 4574
1155 5328
1155 5620
1155 5881
1155 6545
1155 6894
1155 7686
1156 3477
1156 4294
1156 4575
1156 5329
1156 5621
1156 5882
1156 6546
1156 6895
1156 7687
1157 3478
1157 4295
1157 4576
1157 5330
1157 5622
1157 5883
1157 6547
1157 6896
1157 7688
1158 3479
1158 4296
1158 4577
1158 5331
1158 5623
1158 5884
1158 6548
1158 6897
1158 7689
1159 3480
1159 4297
1159 4578
1159 5332
1159 5624
1159 5885
1159 6549
1159 6898
1159 7690
1160 3481
1160 4298
1160 4579
1160 5333
1160 5625
1160 5886
1160 6550
1160 6899
1160 7691
1161 3482
1161 4299
1161 4580
1161 5334
1161 5626
1161 5887
1161 6551
1161 6900
1161 7692
1162 3483
1162 4300
1162 4581
1162 5335
1162 5627
1162 5888
1162 6552
1162 6901
1162 7693
1163 3484
1163 4301
1163 4582
1163 5336
1163 5628
1163 5889
1163 6553
1163 6902
1163 7694
1164 3485
1164 4302
1164 4583
1164 5337
1164 5629
1164 5890
1164 6554
1164 6903
1164 7695
1165 3486
1165 4303
1165 4584
1165 5338
1165 5630
1165 5891
1165 6555
1165 6904
1165 7696
1166 3487
1166 4304
1166 4585
1166 5339
1166 5631
1166 5892
1166 6556
1166 6905
1166 7697
1167 3488
1167 4305
1167 4586
1167 5340
1167 5632
1167 5893
1167 6557
1167 6906
1167 7698
1168 3489
1168 4306
1168 4587
1168 5341
1168 5633
1168 5894
1168 6558
1168 6907
1168 7699
1169 3490
1169 4307
1169 4588
1169 5342
1169 5634
1169 5895
1169 6559
1169 6908
1169 7700
1170 3491
1170 4308
1170 4589
1170 5343
1170 5635
1170 5896
1170 6560
1170 6909
1170 7701
1171 3492
1171 4309
1171 4590
1171 5344
1171 5636
1171 5897
1171 6561
1171 6910
1171 7702
1172 3493
1172 4310
1172 4591
1172 5345
1172 5637
1172 5898
1172 6562
1172 6911
1172 7703
1173 3494
1173 4311
1173 4592
1173 5346
1173 5638
1173 5899
1173 6563
1173 6912
1173 7704
1174 3495
1174 4312
1174 4593
1174 5347
1174 5639
1174 5900
1174 6564
1174 6913
1174 7705
1175 3496
1175 4313
1175 4594
1175 5348
1175 5640
1175 5901
1175 6565
1175 6914
1175 7706
1176 3497
1176 4314
1176 4595
1176 5349
1176 5641
1176 5902
1176 6566
1176 6915
1176 7707
1177 3498
1177 4315
1177 4596
1177 5350
1177 5642
1177 5903
1177 6567
1177 6916
1177 7708
1178 3499
1178 4316
1178 4597
1178 5351
1178 5643
1178 5904
1178 6568
1178 6917
1178 7709
1179 3500
1179 4317
1179 4598
1179 5352
1179 5644
1179 5905
1179 6569
1179 6918
1179 7710
1180 3501
1180 4318
1180 4599
1180 5353
1180 5645
1180 5906
1180 6570
1180 6919
1180 7711
1181 3502
1181 4319
1181 4600
1181 5354
1181 5646
1181 5907
1181 6571
1181 6920
1181 7712
1182 3503
1182 4320
1182 4601
1182 5355
1182 5647
1182 5908
1182 6572
1182 6921
1182 7713
1183 3504
1183 4321
1183 4602
1183 5356
1183 5648
1183 5909
1183 6573
1183 6922
1183 7714
1184 3505
1184 4322
1184 4603
1184 5357
1184 5649
1184 5910
1184 6574
1184 6923
1184 7715
1185 3506
1185 4323
1185 4604
1185 5358
1185 5650
1185 5911
1185 6575
1185 6924
1185 7716
1186 3507
1186 4324
1186 4605
1186 5359
1186 5651
1186 5912
1186 6576
1186 6925
1186 7717
1187 3508
1187 4325
1187 4606
1187 5360
1187 5652
1187 5913
1187 6577
1187 6926
1187 7718
1188 3509
1188 4326
1188 4607
1188 5361
1188 5653
1188 5914
1188 6578
1188 6927
1188 7719
1189 3510
1189 4327
1189 4608
1189 5362
1189 5654
1189 5915
1189 6579
1189 6928
1189 7720
1190 3511
1190 4328
1190 4609
1190 5363
1190 5655
1190 5916
1190 6580
1190 6929
1190 7721
1191 3512
1191 4329
1191 4610
1191 5364
1191 5656
1191 5917
1191 6581
1191 6930
1191 7722
1192 3513
1192 4330
1192 4611
1192 5365
1192 5657
1192 5918
1192 6582
1192 6931
1192 7723
1193 3514
1193 4331
1193 4612
1193 5366
1193 5658
1193 5919
1193 6583
1193 6932
1193 7724
1194 3515
1194 4332
1194 4613
1194 5367
1194 5659
1194 5920
1194 6584
1194 6933
1194 7725
1195 3516
1195 4333
1195 4614
1195 5368
1195 5660
1195 5921
1195 6585
1195 6934
1195 7726
1196 3517
1196 4334
1196 4615
1196 5369
1196 5661
1196 5922
1196 6586
1196 6935
1196 7727
1197 3518
1197 4335
1197 4616
1197 5370
1197 5662
1197 5923
1197 6587
1197 6936
1197 7728
1198 3519
1198 4336
1198 4617
1198 5371
1198 5663
1198 5924
1198 6588
1198 6937
1198 7729
1199 3520
1199 4337
1199 4618
1199 5372
1199 5664
1199 5925
1199 6589
1199 6938
1199 7730
1200 3521
1200 4338
1200 4619
1200 5373
1200 5665
1200 5926
1200 6590
1200 6939
1200 7731
1201 3522
1201 4339
1201 4620
1201 5374
1201 5666
1201 5927
1201 6591
1201 6940
1201 7732
1202 3523
1202 4340
1202 4621
1202 5375
1202 5667
1202 5928
1202 6592
1202 6941
1202 7733
1203 3524
1203 4341
1203 4622
1203 5376
1203 5668
1203 5929
1203 6593
1203 6942
1203 7734
1204 3525
1204 4342
1204 4623
1204 5377
1204 5669
1204 5930
1204 6594
1204 6943
1204 7735
1205 3526
1205 4343
1205 4624
1205 5378
1205 5670
1205 5931
1205 6595
1205 6944
1205 7736
1206 3527
1206 4344
1206 4625
1206 5216
1206 5671
1206 5932
1206 6596
1206 6945
1206 7737
1207 3528
1207 4345
1207 4626
1207 5217
1207 5672
1207 5933
1207 6597
1207 6946
1207 7738
1208 3529
1208 4346
1208 4627
1208 5218
1208 5673
1208 5934
1208 6598
1208 6947
1208 7739
1209 3530
1209 4347
1209 4628
1209 5219
1209 5674
1209 5935
1209 6599
1209 6948
1209 7740
1210 3531
1210 4348
1210 4629
1210 5220
1210 5675
1210 5936
1210 6600
1210 6949
1210 7741
1211 3532
1211 4349
1211 4630
1211 5221
1211 5676
1211 5937
1211 6601
1211 6950
1211 7742
1212 3533
1212 4350
1212 4631
1212 5222
1212 5677
1212 5938
1212 6602
1212 6951
1212 7743
1213 3534
1213 4351
1213 4632
1213 5223
1213 5678
1213 5939
1213 6603
1213 6952
1213 7744
1214 3535
1214 4352
1214 4633
1214 5224
1214 5679
1214 5940
1214 6604
1214 6953
1214 7745
1215 3536
1215 4353
1215 4634
1215 5225
1215 5680
1215 5941
1215 6605
1215 6954
1215 7746
1216 3537
1216 4354
1216 4635
1216 5226
1216 5681
1216 5942
1216 6606
1216 6955
1216 7747
1217 3538
1217 4355
1217 4636
1217 5227
1217 5682
1217 5943
1217 6607
1217 6956
1217 7748
1218 3539
1218 4356
1218 4637
1218 5228
1218 5683
1218 5944
1218 6608
1218 6957
1218 7749
1219 3540
1219 4357
1219 4638
1219 5229
1219 5684
1219 5945
1219 6609
1219 6958
1219 7750
1220 3541
1220 4358
1220 4639
1220 5230
1220 5685
1220 5946
1220 6610
1220 6959
1220 7751
1221 3542
1221 4359
1221 4640
1221 5231
1221 5686
1221 5947
1221 6611
1221 6960
1221 7752
1222 3543
1222 4360
1222 4641
1222 5232
1222 5687
1222 5948
1222 6612
1222 6961
1222 7753
1223 3544
1223 4361
1223 4642
1223 5233
1223 5688
1223 5949
1223 6613
1223 6962
1223 7754
1224 3545
1224 4362
1224 4643
1224 5234
1224 5689
1224 5950
1224 6614
1224 6963
1224 7755
1225 3546
1225 4363
1225 4644
1225 5235
1225 5690
1225 5951
1225 6615
1225 6964
1225 7756
1226 3547
1226 4364
1226 4645
1226 5236
1226 5691
1226 5952
1226 6616
1226 6965
1226 7757
1227 3548
1227 4365
1227 4646
1227 5237
1227 5692
1227 5953
1227 6617
1227 6966
1227 7758
1228 3549
1228 4366
1228 4647
1228 5238
1228 5693
1228 5954
1228 6618
1228 6967
1228 7759
1229 3550
1229 4367
1229 4648
1229 5239
1229 5694
1229 5955
1229 6619
1229 6968
1229 7760
1230 3551
1230 4368
1230 4649
1230 5240
1230 5695
1230 5956
1230 6620
1230 6969
1230 7761
1231 3552
1231 4369
1231 4650
1231 5241
1231 5696
1231 5957
1231 6621
1231 6970
1231 7762
1232 3553
1232 4370
1232 4651
1232 5242
1232 5697
1232 5958
1232 6622
1232 6971
1232 7763
1233 3554
1233 4371
1233 4652
1233 5243
1233 5698
1233 5959
1233 6623
1233 6972
1233 7764
1234 3555
1234 4372
1234 4653
1234 5244
1234 5699
1234 5960
1234 6624
1234 6973
1234 7765
1235 3556
1235 4373
1235 4654
1235 5245
1235 5700
1235 5961
1235 6625
1235 6974
1235 7766
1236 3557
1236 4374
1236 4655
1236 5246
1236 5701
1236 5962
1236 6626
1236 6975
1236 7767
1237 3558
1237 4375
1237 4656
1237 5247
1237 5702
1237 5963
1237 6627
1237 6976
1237 7768
1238 3559
1238 4376
1238 4657
1238 5248
1238 5703
1238 5964
1238 6628
1238 6977
1238 7769
1239 3560
1239 4377
1239 4658
1239 5249
1239 5704
1239 5965
1239 6629
1239 6978
1239 7770
1240 3561
1240 4378
1240 4659
1240 5250
1240 5542
1240 5966
1240 6630
1240 6979
1240 7771
1241 3562
1241 4379
1241 4660
1241 5251
1241 5543
1241 5967
1241 6631
1241 6980
1241 7772
1242 3563
1242 4380
1242 4661
1242 5252
1242 5544
1242 5968
1242 6632
1242 6981
1242 7773
1243 3564
1243 4381
1243 4662
1243 5253
1243 5545
1243 5969
1243 6633
1243 6982
1243 7774
1244 3565
1244 4382
1244 4663
1244 5254
1244 5546
1244 5970
1244 6634
1244 6983
1244 7775
1245 3566
1245 4383
1245 4664
1245 5255
1245 5547
1245 5971
1245 6635
1245 6984
1245 7776
1246 3567
1246 4384
1246 4665
1246 5256
1246 5548
1246 5972
1246 6636
1246 6985
1246 7777
1247 3568
1247 4385
1247 4666
1247 5257
1247 5549
1247 5973
1247 6637
1247 6986
1247 7778
1248 3569
1248 4386
1248 4667
1248 5258
1248 5550
1248 5974
1248 6638
1248 6987
1248 7779
1249 3570
1249 4387
1249 4668
1249 5259
1249 5551
1249 5975
1249 6639
1249 6988
1249 7780
1250 3571
1250 4388
1250 4669
1250 5260
1250 5552
1250 5976
1250 6640
1250 6989
1250 7781
1251 3572
1251 4389
1251 4670
1251 5261
1251 5553
1251 5977
1251 6641
1251 6990
1251 7782
1252 3573
1252 4390
1252 4671
1252 5262
1252 5554
1252 5978
1252 6642
1252 6991
1252 7783
1253 3574
1253 4391
1253 4672
1253 5263
1253 5555
1253 5979
1253 6643
1253 6992
1253 7784
1254 3575
1254 4392
1254 4673
1254 5264
1254 5556
1254 5980
1254 6644
1254 6993
1254 7785
1255 3576
1255 4393
1255 4674
1255 5265
1255 5557
1255 5981
1255 6645
1255 6994
1255 7786
1256 3577
1256 4394
1256 4675
1256 5266
1256 5558
1256 5982
1256 6646
1256 6995
1256 7787
1257 3578
1257 4395
1257 4676
1257 5267
1257 5559
1257 5983
1257 6647
1257 6996
1257 7788
1258 3579
1258 4396
1258 4677
1258 5268
1258 5560
1258 5984
1258 6648
1258 6997
1258 7789
1259 3580
1259 4397
1259 4678
1259 5269
1259 5561
1259 5985
1259 6649
1259 6998
1259 7790
1260 3581
1260 4398
1260 4679
1260 5270
1260 5562
1260 5986
1260 6650
1260 6999
1260 7791
1261 3582
1261 4399
1261 4680
1261 5271
1261 5563
1261 5987
1261 6651
1261 7000
1261 7792
1262 3583
1262 4400
1262 4681
1262 5272
1262 5564
1262 5988
1262 6652
1262 7001
1262 7793
1263 3584
1263 4238
1263 4682
1263 5273
1263 5565
1263 5989
1263 6653
1263 7002
1263 7794
1264 3585
1264 4239
1264 4683
1264 5274
1264 5566
1264 5990
1264 6654
1264 7003
1264 7795
1265 3423
1265 4240
1265 4684
1265 5275
1265 5567
1265 5991
1265 6655
1265 7004
1265 7796
1266 3424
1266 4241
1266 4685
1266 5276
1266 5568
1266 5992
1266 6656
1266 7005
1266 7797
1267 3425
1267 4242
1267 4686
1267 5277
1267 5569
1267 5993
1267 6657
1267 7006
1267 7798
1268 3426
1268 4243
1268 4687
1268 5278
1268 5570
1268 5994
1268 6658
1268 7007
1268 7799
1269 3427
1269 4244
1269 4688
1269 5279
1269 5571
1269 5995
1269 6659
1269 7008
1269 7800
1270 3428
1270 4245
1270 4689
1270 5280
1270 5572
1270 5996
1270 6660
1270 6846
1270 7801
1271 3429
1271 4246
1271 4690
1271 5281
1271 5573
1271 5997
1271 6661
1271 6847
1271 7802
1272 3430
1272 4247
1272 4691
1272 5282
1272 5574
1272 5998
1272 6662
1272 6848
1272 7803
1273 3431
1273 4248
1273 4692
1273 5283
1273 5575
1273 5999
1273 6663
1273 6849
1273 7804
1274 3432
1274 4249
1274 4693
1274 5284
1274 5576
1274 6000
1274 6664
1274 6850
1274 7805
1275 3433
1275 4250
1275 4694
1275 5285
1275 5577
1275 6001
1275 6665
1275 6851
1275 7806
1276 3434
1276 4251
1276 4695
1276 5286
1276 5578
1276 6002
1276 6666
1276 6852
1276 7807
1277 3435
1277 4252
1277 4696
1277 5287
1277 5579
1277 6003
1277 6667
1277 6853
1277 7808
1278 3436
1278 4253
1278 4697
1278 5288
1278 5580
1278 6004
1278 6668
1278 6854
1278 7809
1279 3437
1279 4254
1279 4698
1279 5289
1279 5581
1279 6005
1279 6669
1279 6855
1279 7810
1280 3438
1280 4255
1280 4699
1280 5290
1280 5582
1280 6006
1280 6670
1280 6856
1280 7811
1281 3439
1281 4256
1281 4700
1281 5291
1281 5583
1281 6007
1281 6671
1281 6857
1281 7812
1282 3440
1282 4257
1282 4701
1282 5292
1282 5584
1282 6008
1282 6672
1282 6858
1282 7813
1283 3441
1283 4258
1283 4702
1283 5293
1283 5585
1283 6009
1283 6673
1283 6859
1283 7814
1284 3442
1284 4259
1284 4703
1284 5294
1284 5586
1284 6010
1284 6674
1284 6860
1284 7815
1285 3443
1285 4260
1285 4704
1285 5295
1285 5587
1285 6011
1285 6675
1285 6861
1285 7816
1286 3444
1286 4261
1286 4705
1286 5296
1286 5588
1286 6012
1286 6676
1286 6862
1286 7817
1287 3445
1287 4262
1287 4706
1287 5297
1287 5589
1287 6013
1287 6677
1287 6863
1287 7818
1288 3446
1288 4263
1288 4707
1288 5298
1288 5590
1288 6014
1288 6678
1288 6864
1288 7819
1289 3447
1289 4264
1289 4708
1289 5299
1289 5591
1289 6015
1289 6679
1289 6865
1289 7820
1290 3448
1290 4265
1290 4709
1290 5300
1290 5592
1290 6016
1290 6680
1290 6866
1290 7821
1291 3449
1291 4266
1291 4710
1291 5301
1291 5593
1291 6017
1291 6681
1291 6867
1291 7822
1292 3450
1292 4267
1292 4711
1292 5302
1292 5594
1292 6018
1292 6682
1292 6868
1292 7823
1293 3451
1293 4268
1293 4712
1293 5303
1293 5595
1293 6019
1293 6520
1293 6869
1293 7661
1294 3452
1294 4269
1294 4713
1294 5304
1294 5596
1294 6020
1294 6521
1294 6870
1294 7662
1295 3453
1295 4270
1295 4714
1295 5305
1295 5597
1295 6021
1295 6522
1295 6871
1295 7663
1296 3454
1296 4271
1296 4715
1296 5306
1296 5598
1296 6022
1296 6523
1296 6872
1296 7664
1297 3455
1297 4272
1297 4716
1297 5307
1297 5599
1297 6023
1297 6524
1297 6873
1297 7665
1298 3456
1298 4273
1298 4717
1298 5308
1298 5600
1298 6024
1298 6525
1298 6874
1298 7666
1299 3457
1299 4274
1299 4718
1299 5309
1299 5601
1299 6025
1299 6526
1299 6875
1299 7667
1300 3458
1300 4275
1300 4719
1300 5310
1300 5602
1300 6026
1300 6527
1300 6876
1300 7668
1301 3459
1301 4276
1301 4720
1301 5311
1301 5603
1301 6027
1301 6528
1301 6877
1301 7669
1302 3460
1302 4277
1302 4721
1302 5312
1302 5604
1302 6028
1302 6529
1302 6878
1302 7670
1303 3461
1303 4278
1303 4722
1303 5313
1303 5605
1303 6029
1303 6530
1303 6879
1303 7671
1304 3706
1304 4477
1304 4815
1304 5505
1304 5764
1304 6053
1304 6767
1304 7076
1304 7908
1305 3707
1305 4478
1305 4816
1305 5506
1305 5765
1305 6054
1305 6768
1305 7077
1305 7909
1306 3708
1306 4479
1306 4817
1306 5507
1306 5766
1306 6055
1306 6769
1306 7078
1306 7910
1307 3709
1307 4480
1307 4818
1307 5508
1307 5767
1307 6056
1307 6770
1307 7079
1307 7911
1308 3710
1308 4481
1308 4819
1308 5509
1308 5768
1308 6057
1308 6771
1308 7080
1308 7912
1309 3711
1309 4482
1309 4820
1309 5510
1309 5769
1309 6058
1309 6772
1309 7081
1309 7913
1310 3712
1310 4483
1310 4821
1310 5511
1310 5770
1310 6059
1310 6773
1310 7082
1310 7914
1311 3713
1311 4484
1311 4822
1311 5512
1311 5771
1311 6060
1311 6774
1311 7083
1311 7915
1312 3714
1312 4485
1312 4823
1312 5513
1312 5772
1312 6061
1312 6775
1312 7084
1312 7916
1313 3715
1313 4486
1313 4824
1313 5514
1313 5773
1313 6062
1313 6776
1313 7085
1313 7917
1314 3716
1314 4487
1314 4825
1314 5515
1314 5774
1314 6063
1314 6777
1314 7086
1314 7918
1315 3717
1315 4488
1315 4826
1315 5516
1315 5775
1315 6064
1315 6778
1315 7087
1315 7919
1316 3718
1316 4489
1316 4827
1316 5517
1316 5776
1316 6065
1316 6779
1316 7088
1316 7920
1317 3719
1317 4490
1317 4828
1317 5518
1317 5777
1317 6066
1317 6780
1317 7089
1317 7921
1318 3720
1318 4491
1318 4829
1318 5519
1318 5778
1318 6067
1318 6781
1318 7090
1318 7922
1319 3721
1319 4492
1319 4830
1319 5520
1319 5779
1319 6068
1319 6782
1319 7091
1319 7923
1320 3722
1320 4493
1320 4831
1320 5521
1320 5780
1320 6069
1320 6783
1320 7092
1320 7924
1321 3723
1321 4494
1321 4832
1321 5522
1321 5781
1321 6070
1321 6784
1321 7093
1321 7925
1322 3724
1322 4495
1322 4833
1322 5523
1322 5782
1322 6071
1322 6785
1322 7094
1322 7926
1323 3725
1323 4496
1323 4834
1323 5524
1323 5783
1323 6072
1323 6786
1323 7095
1323 7927
1324 3726
1324 4497
1324 4835
1324 5525
1324 5784
1324 6073
1324 6787
1324 7096
1324 7928
1325 3727
1325 4498
1325 4836
1325 5526
1325 5785
1325 6074
1325 6788
1325 7097
1325 7929
1326 3728
1326 4499
1326 4837
1326 5527
1326 5786
1326 6075
1326 6789
1326 7098
1326 7930
1327 3729
1327 4500
1327 4838
1327 5528
1327 5787
1327 6076
1327 6790
1327 7099
1327 7931
1328 3730
1328 4501
1328 4839
1328 5529
1328 5788
1328 6077
1328 6791
1328 7100
1328 7932
1329 3731
1329 4502
1329 4840
1329 5530
1329 5789
1329 6078
1329 6792
1329 7101
1329 7933
1330 3732
1330 4503
1330 4841
1330 5531
1330 5790
1330 6079
1330 6793
1330 7102
1330 7934
1331 3733
1331 4504
1331 4842
1331 5532
1331 5791
1331 6080
1331 6794
1331 7103
1331 7935
1332 3734
1332 4505
1332 4843
1332 5533
1332 5792
1332 6081
1332 6795
1332 7104
1332 7936
1333 3735
1333 4506
1333 4844
1333 5534
1333 5793
1333 6082
1333 6796
1333 7105
1333 7937
1334 3736
1334 4507
1334 4845
1334 5535
1334 5794
1334 6083
1334 6797
1334 7106
1334 7938
1335 3737
1335 4508
1335 4846
1335 5536
1335 5795
1335 6084
1335 6798
1335 7107
1335 7939
1336 3738
1336 4509
1336 4847
1336 5537
1336 5796
1336 6085
1336 6799
1336 7108
1336 7940
1337 3739
1337 4510
1337 4848
1337 5538
1337 5797
1337 6086
1337 6800
1337 7109
1337 7941
1338 3740
1338 4511
1338 4849
1338 5539
1338 5798
1338 6087
1338 6801
1338 7110
1338 7942
1339 3741
1339 4512
1339 4850
1339 5540
1339 5799
1339 6088
1339 6802
1339 7111
1339 7943
1340 3742
1340 4513
1340 4851
1340 5541
1340 5800
1340 6089
1340 6803
1340 7112
1340 7944
1341 3743
1341 4514
1341 4852
1341 5379
1341 5801
1341 6090
1341 6804
1341 7113
1341 7945
1342 3744
1342 4515
1342 4853
1342 5380
1342 5802
1342 6091
1342 6805
1342 7114
1342 7946
1343 3745
1343 4516
1343 4854
1343 5381
1343 5803
1343 6092
1343 6806
1343 7115
1343 7947
1344 3746
1344 4517
1344 4855
1344 5382
1344 5804
1344 6093
1344 6807
1344 7116
1344 7948
1345 3747
1345 4518
1345 4856
1345 5383
1345 5805
1345 6094
1345 6808
1345 7117
1345 7949
1346 3748
1346 4519
1346 4857
1346 5384
1346 5806
1346 6095
1346 6809
1346 7118
1346 7950
1347 3586
1347 4520
1347 4858
1347 5385
1347 5807
1347 6096
1347 6810
1347 7119
1347 7951
1348 3587
1348 4521
1348 4859
1348 5386
1348 5808
1348 6097
1348 6811
1348 7120
1348 7952
1349 3588
1349 4522
1349 4860
1349 5387
1349 5809
1349 6098
1349 6812
1349 7121
1349 7953
1350 3589
1350 4523
1350 4861
1350 5388
1350 5810
1350 6099
1350 6813
1350 7122
1350 7954
1351 3590
1351 4524
1351 4862
1351 5389
1351 5811
1351 6100
1351 6814
1351 7123
1351 7955
1352 3591
1352 4525
1352 4863
1352 5390
1352 5812
1352 6101
1352 6815
1352 7124
1352 7956
1353 3592
1353 4526
1353 4864
1353 5391
1353 5813
1353 6102
1353 6816
1353 7125
1353 7957
1354 3593
1354 4527
1354 4865
1354 5392
1354 5814
1354 6103
1354 6817
1354 7126
1354 7958
1355 3594
1355 4528
1355 4866
1355 5393
1355 5815
1355 6104
1355 6818
1355 7127
1355 7959
1356 3595
1356 4529
1356 4867
1356 5394
1356 5816
1356 6105
1356 6819
1356 7128
1356 7960
1357 3596
1357 4530
1357 4868
1357 5395
1357 5817
1357 6106
1357 6820
1357 7129
1357 7961
1358 3597
1358 4531
1358 4869
1358 5396
1358 5818
1358 6107
1358 6821
1358 7130
1358 7962
1359 3598
1359 4532
1359 4870
1359 5397
1359 5819
1359 6108
1359 6822
1359 7131
1359 7963
1360 3599
1360 4533
1360 4871
1360 5398
1360 5820
1360 6109
1360 6823
1360 7132
1360 7964
1361 3600
1361 4534
1361 4872
1361 5399
1361 5821
1361 6110
1361 6824
1361 7133
1361 7965
1362 3601
1362 4535
1362 4873
1362 5400
1362 5822
1362 6111
1362 6825
1362 7134
1362 7966
1363 3602
1363 4536
1363 4874
1363 5401
1363 5823
1363 6112
1363 6826
1363 7135
1363 7967
1364 3603
1364 4537
1364 4875
1364 5402
1364 5824
1364 6113
1364 6827
1364 7136
1364 7968
1365 3604
1365 4538
1365 4876
1365 5403
1365 5825
1365 6114
1365 6828
1365 7137
1365 7969
1366 3605
1366 4539
1366 4877
1366 5404
1366 5826
1366 6115
1366 6829
1366 7138
1366 7970
1367 3606
1367 4540
1367 4878
1367 5405
1367 5827
1367 6116
1367 6830
1367 7139
1367 7971
1368 3607
1368 4541
1368 4879
1368 5406
1368 5828
1368 6117
1368 6831
1368 7140
1368 7972
1369 3608
1369 4542
1369 4880
1369 5407
1369 5829
1369 6118
1369 6832
1369 7141
1369 7973
1370 3609
1370 4543
1370 4881
1370 5408
1370 5830
1370 6119
1370 6833
1370 7142
1370 7974
1371 3610
1371 4544
1371 4882
1371 5409
1371 5831
1371 6120
1371 6834
1371 7143
1371 7975
1372 3611
1372 4545
1372 4883
1372 5410
1372 5832
1372 6121
1372 6835
1372 7144
1372 7976
1373 3612
1373 4546
1373 4884
1373 5411
1373 5833
1373 6122
1373 6836
1373 7145
1373 7977
1374 3613
1374 4547
1374 4885
1374 5412
1374 5834
1374 6123
1374 6837
1374 7146
1374 7978
1375 3614
1375 4548
1375 4886
1375 5413
1375 5835
1375 6124
1375 6838
1375 7147
1375 7979
1376 3615
1376 4549
1376 4887
1376 5414
1376 5836
1376 6125
1376 6839
1376 7148
1376 7980
1377 3616
1377 4550
1377 4888
1377 5415
1377 5837
1377 6126
1377 6840
1377 7149
1377 7981
1378 3617
1378 4551
1378 4889
1378 5416
1378 5838
1378 6127
1378 6841
1378 7150
1378 7982
1379 3618
1379 4552
1379 4727
1379 5417
1379 5839
1379 6128
1379 6842
1379 7151
1379 7983
1380 3619
1380 4553
1380 4728
1380 5418
1380 5840
1380 6129
1380 6843
1380 7152
1380 7984
1381 3620
1381 4554
1381 4729
1381 5419
1381 5841
1381 6130
1381 6844
1381 7153
1381 7985
1382 3621
1382 4555
1382 4730
1382 5420
1382 5842
1382 6131
1382 6845
1382 7154
1382 7986
1383 3622
1383 4556
1383 4731
1383 5421
1383 5843
1383 6132
1383 6683
1383 7155
1383 7824
1384 3623
1384 4557
1384 4732
1384 5422
1384 5844
1384 6133
1384 6684
1384 7156
1384 7825
1385 3624
1385 4558
1385 4733
1385 5423
1385 5845
1385 6134
1385 6685
1385 7157
1385 7826
1386 3625
1386 4559
1386 4734
1386 5424
1386 5846
1386 6135
1386 6686
1386 7158
1386 7827
1387 3626
1387 4560
1387 4735
1387 5425
1387 5847
1387 6136
1387 6687
1387 7159
1387 7828
1388 3627
1388 4561
1388 4736
1388 5426
1388 5848
1388 6137
1388 6688
1388 7160
1388 7829
1389 3628
1389 4562
1389 4737
1389 5427
1389 5849
1389 6138
1389 6689
1389 7161
1389 7830
1390 3629
1390 4563
1390 4738
1390 5428
1390 5850
1390 6139
1390 6690
1390 7162
1390 7831
1391 3630
1391 4401
1391 4739
1391 5429
1391 5851
1391 6140
1391 6691
1391 7163
1391 7832
1392 3631
1392 4402
1392 4740
1392 5430
1392 5852
1392 6141
1392 6692
1392 7164
1392 7833
1393 3632
1393 4403
1393 4741
1393 5431
1393 5853
1393 6142
1393 6693
1393 7165
1393 7834
1394 3633
1394 4404
1394 4742
1394 5432
1394 5854
1394 6143
1394 6694
1394 7166
1394 7835
1395 3634
1395 4405
1395 4743
1395 5433
1395 5855
1395 6144
1395 6695
1395 7167
1395 7836
1396 3635
1396 4406
1396 4744
1396 5434
1396 5856
1396 6145
1396 6696
1396 7168
1396 7837
1397 3636
1397 4407
1397 4745
1397 5435
1397 5857
1397 6146
1397 6697
1397 7169
1397 7838
1398 3637
1398 4408
1398 4746
1398 5436
1398 5858
1398 6147
1398 6698
1398 7170
1398 7839
1399 3638
1399 4409
1399 4747
1399 5437
1399 5859
1399 6148
1399 6699
1399 7171
1399 7840
1400 3639
1400 4410
1400 4748
1400 5438
1400 5860
1400 6149
1400 6700
1400 7009
1400 7841
1401 3640
1401 4411
1401 4749
1401 5439
1401 5861
1401 6150
1401 6701
1401 7010
1401 7842
1402 3641
1402 4412
1402 4750
1402 5440
1402 5862
1402 6151
1402 6702
1402 7011
1402 7843
1403 3642
1403 4413
1403 4751
1403 5441
1403 5863
1403 6152
1403 6703
1403 7012
1403 7844
1404 3643
1404 4414
1404 4752
1404 5442
1404 5864
1404 6153
1404 6704
1404 7013
1404 7845
1405 3644
1405 4415
1405 4753
1405 5443
1405 5865
1405 6154
1405 6705
1405 7014
1405 7846
1406 3645
1406 4416
1406 4754
1406 5444
1406 5866
1406 6155
1406 6706
1406 7015
1406 7847
1407 3646
1407 4417
1407 4755
1407 5445
1407 5867
1407 6156
1407 6707
1407 7016
1407 7848
1408 3647
1408 4418
1408 4756
1408 5446
1408 5705
1408 6157
1408 6708
1408 7017
1408 7849
1409 3648
1409 4419
1409 4757
1409 5447
1409 5706
1409 6158
1409 6709
1409 7018
1409 7850
1410 3649
1410 4420
1410 4758
1410 5448
1410 5707
1410 6159
1410 6710
1410 7019
1410 7851
1411 3650
1411 4421
1411 4759
1411 5449
1411 5708
1411 6160
1411 6711
1411 7020
1411 7852
1412 3651
1412 4422
1412 4760
1412 5450
1412 5709
1412 6161
1412 6712
1412 7021
1412 7853
1413 3652
1413 4423
1413 4761
1413 5451
1413 5710
1413 6162
1413 6713
1413 7022
1413 7854
1414 3653
1414 4424
1414 4762
1414 5452
1414 5711
1414 6163
1414 6714
1414 7023
1414 7855
1415 3654
1415 4425
1415 4763
1415 5453
1415 5712
1415 6164
1415 6715
1415 7024
1415 7856
1416 3655
1416 4426
1416 4764
1416 5454
1416 5713
1416 6165
1416 6716
1416 7025
1416 7857
1417 3656
1417 4427
1417 4765
1417 5455
1417 5714
1417 6166
1417 6717
1417 7026
1417 7858
1418 3657
1418 4428
1418 4766
1418 5456
1418 5715
1418 6167
1418 6718
1418 7027
1418 7859
1419 3658
1419 4429
1419 4767
1419 5457
1419 5716
1419 6168
1419 6719
1419 7028
1419 7860
1420 3659
1420 4430
1420 4768
1420 5458
1420 5717
1420 6169
1420 6720
1420 7029
1420 7861
1421 3660
1421 4431
1421 4769
1421 5459
1421 5718
1421 6170
1421 6721
1421 7030
1421 7862
1422 3661
1422 4432
1422 4770
1422 5460
1422 5719
1422 6171
1422 6722
1422 7031
1422 7863
1423 3662
1423 4433
1423 4771
1423 5461
1423 5720
1423 6172
1423 6723
1423 7032
1423 7864
1424 3663
1424 4434
1424 4772
1424 5462
1424 5721
1424 6173
1424 6724
1424 7033
1424 7865
1425 3664
1425 4435
1425 4773
1425 5463
1425 5722
1425 6174
1425 6725
1425 7034
1425 7866
1426 3665
1426 4436
1426 4774
1426 5464
1426 5723
1426 6175
1426 6726
1426 7035
1426 7867
1427 3666
1427 4437
1427 4775
1427 5465
1427 5724
1427 6176
1427 6727
1427 7036
1427 7868
1428 3667
1428 4438
1428 4776
1428 5466
1428 5725
1428 6177
1428 6728
1428 7037
1428 7869
1429 3668
1429 4439
1429 4777
1429 5467
1429 5726
1429 6178
1429 6729
1429 7038
1429 7870
1430 3669
1430 4440
1430 4778
1430 5468
1430 5727
1430 6179
1430 6730
1430 7039
1430 7871
1431 3670
1431 4441
1431 4779
1431 5469
1431 5728
1431 6180
1431 6731
1431 7040
1431 7872
1432 3671
1432 4442
1432 4780
1432 5470
1432 5729
1432 6181
1432 6732
1432 7041
1432 7873
1433 3672
1433 4443
1433 4781
1433 5471
1433 5730
1433 6182
1433 6733
1433 7042
1433 7874
1434 3673
1434 4444
1434 4782
1434 5472
1434 5731
1434 6183
1434 6734
1434 7043
1434 7875
1435 3674
1435 4445
1435 4783
1435 5473
1435 5732
1435 6184
1435 6735
1435 7044
1435 7876
1436 3675
1436 4446
1436 4784
1436 5474
1436 5733
1436 6185
1436 6736
1436 7045
1436 7877
1437 3676
1437 4447
1437 4785
1437 5475
1437 5734
1437 6186
1437 6737
1437 7046
1437 7878
1438 3677
1438 4448
1438 4786
1438 5476
1438 5735
1438 6187
1438 6738
1438 7047
1438 7879
1439 3678
1439 4449
1439 4787
1439 5477
1439 5736
1439 6188
1439 6739
1439 7048
1439 7880
1440 3679
1440 4450
1440 4788
1440 5478
1440 5737
1440 6189
1440 6740
1440 7049
1440 7881
1441 3680
1441 4451
1441 4789
1441 5479
1441 5738
1441 6190
1441 6741
1441 7050
1441 7882
1442 3681
1442 4452
1442 4790
1442 5480
1442 5739
1442 6191
1442 6742
1442 7051
1442 7883
1443 3682
1443 4453
1443 4791
1443 5481
1443 5740
1443 6192
1443 6743
1443 7052
1443 7884
1444 3683
1444 4454
1444 4792
1444 5482
1444 5741
1444 6193
1444 6744
1444 7053
1444 7885
1445 3684
1445 4455
1445 4793
1445 5483
1445 5742
1445 6031
1445 6745
1445 7054
1445 7886
1446 3685
1446 4456
1446 4794
1446 5484
1446 5743
1446 6032
1446 6746
1446 7055
1446 7887
1447 3686
1447 4457
1447 4795
1447 5485
1447 5744
1447 6033
1447 6747
1447 7056
1447 7888
1448 3687
1448 4458
1448 4796
1448 5486
1448 5745
1448 6034
1448 6748
1448 7057
1448 7889
1449 3688
1449 4459
1449 4797
1449 5487
1449 5746
1449 6035
1449 6749
1449 7058
1449 7890
1450 3689
1450 4460
1450 4798
1450 5488
1450 5747
1450 6036
1450 6750
1450 7059
1450 7891
1451 3690
1451 4461
1451 4799
1451 5489
1451 5748
1451 6037
1451 6751
1451 7060
1451 7892
1452 3691
1452 4462
1452 4800
1452 5490
1452 5749
1452 6038
1452 6752
1452 7061
1452 7893
1453 3692
1453 4463
1453 4801
1453 5491
1453 5750
1453 6039
1453 6753
1453 7062
1453 7894
1454 3693
1454 4464
1454 4802
1454 5492
1454 5751
1454 6040
1454 6754
1454 7063
1454 7895
1455 3694
1455 4465
1455 4803
1455 5493
1455 5752
1455 6041
1455 6755
1455 7064
1455 7896
1456 3695
1456 4466
1456 4804
1456 5494
1456 5753
1456 6042
1456 6756
1456 7065
1456 7897
1457 3696
1457 4467
1457 4805
1457 5495
1457 5754
1457 6043
1457 6757
1457 7066
1457 7898
1458 3697
1458 4468
1458 4806
1458 5496
1458 5755
1458 6044
1458 6758
1458 7067
1458 7899
1459 3698
1459 4469
1459 4807
1459 5497
1459 5756
1459 6045
1459 6759
1459 7068
1459 7900
1460 3699
1460 4470
1460 4808
1460 5498
1460 5757
1460 6046
1460 6760
1460 7069
1460 7901
1461 3700
1461 4471
1461 4809
1461 5499
1461 5758
1461 6047
1461 6761
1461 7070
1461 7902
1462 3701
1462 4472
1462 4810
1462 5500
1462 5759
1462 6048
1462 6762
1462 7071
1462 7903
1463 3702
1463 4473
1463 4811
1463 5501
1463 5760
1463 6049
1463 6763
1463 7072
1463 7904
1464 3703
1464 4474
1464 4812
1464 5502
1464 5761
1464 6050
1464 6764
1464 7073
1464 7905
1465 3704
1465 4475
1465 4813
1465 5503
1465 5762
1465 6051
1465 6765
1465 7074
1465 7906
1466 3705
1466 4476
1466 4814
1466 5504
1466 5763
1466 6052
1466 6766
1466 7075
1466 7907
1467 3880
1467 4685
1467 4910
1467 5704
1467 5874
1467 6199
1467 6954
1467 7328
1467 8095
1468 3881
1468 4686
1468 4911
1468 5542
1468 5875
1468 6200
1468 6955
1468 7329
1468 8096
1469 3882
1469 4687
1469 4912
1469 5543
1469 5876
1469 6201
1469 6956
1469 7330
1469 8097
1470 3883
1470 4688
1470 4913
1470 5544
1470 5877
1470 6202
1470 6957
1470 7331
1470 8098
1471 3884
1471 4689
1471 4914
1471 5545
1471 5878
1471 6203
1471 6958
1471 7332
1471 8099
1472 3885
1472 4690
1472 4915
1472 5546
1472 5879
1472 6204
1472 6959
1472 7333
1472 8100
1473 3886
1473 4691
1473 4916
1473 5547
1473 5880
1473 6205
1473 6960
1473 7334
1473 8101
1474 3887
1474 4692
1474 4917
1474 5548
1474 5881
1474 6206
1474 6961
1474 7172
1474 8102
1475 3888
1475 4693
1475 4918
1475 5549
1475 5882
1475 6207
1475 6962
1475 7173
1475 8103
1476 3889
1476 4694
1476 4919
1476 5550
1476 5883
1476 6208
1476 6963
1476 7174
1476 8104
1477 3890
1477 4695
1477 4920
1477 5551
1477 5884
1477 6209
1477 6964
1477 7175
1477 8105
1478 3891
1478 4696
1478 4921
1478 5552
1478 5885
1478 6210
1478 6965
1478 7176
1478 8106
1479 3892
1479 4697
1479 4922
1479 5553
1479 5886
1479 6211
1479 6966
1479 7177
1479 8107
1480 3893
1480 4698
1480 4923
1480 5554
1480 5887
1480 6212
1480 6967
1480 7178
1480 8108
1481 3894
1481 4699
1481 4924
1481 5555
1481 5888
1481 6213
1481 6968
1481 7179
1481 8109
1482 3895
1482 4700
1482 4925
1482 5556
1482 5889
1482 6214
1482 6969
1482 7180
1482 8110
1483 3896
1483 4701
1483 4926
1483 5557
1483 5890
1483 6215
1483 6970
1483 7181
1483 8111
1484 3897
1484 4702
1484 4927
1484 5558
1484 5891
1484 6216
1484 6971
1484 7182
1484 8112
1485 3898
1485 4703
1485 4928
1485 5559
1485 5892
1485 6217
1485 6972
1485 7183
1485 8113
1486 3899
1486 4704
1486 4929
1486 5560
1486 5893
1486 6218
1486 6973
1486 7184
1486 8114
1487 3900
1487 4705
1487 4930
1487 5561
1487 5894
1487 6219
1487 6974
1487 7185
1487 8115
1488 3901
1488 4706
1488 4931
1488 5562
1488 5895
1488 6220
1488 6975
1488 7186
1488 8116
1489 3902
1489 4707
1489 4932
1489 5563
1489 5896
1489 6221
1489 6976
1489 7187
1489 8117
1490 3903
1490 4708
1490 4933
1490 5564
1490 5897
1490 6222
1490 6977
1490 7188
1490 8118
1491 3904
1491 4709
1491 4934
1491 5565
1491 5898
1491 6223
1491 6978
1491 7189
1491 8119
1492 3905
1492 4710
1492 4935
1492 5566
1492 5899
1492 6224
1492 6979
1492 7190
1492 8120
1493 3906
1493 4711
1493 4936
1493 5567
1493 5900
1493 6225
1493 6980
1493 7191
1493 8121
1494 3907
1494 4712
1494 4937
1494 5568
1494 5901
1494 6226
1494 6981
1494 7192
1494 8122
1495 3908
1495 4713
1495 4938
1495 5569
1495 5902
1495 6227
1495 6982
1495 7193
1495 8123
1496 3909
1496 4714
1496 4939
1496 5570
1496 5903
1496 6228
1496 6983
1496 7194
1496 8124
1497 3910
1497 4715
1497 4940
1497 5571
1497 5904
1497 6229
1497 6984
1497 7195
1497 8125
1498 3911
1498 4716
1498 4941
1498 5572
1498 5905
1498 6230
1498 6985
1498 7196
1498 8126
1499 3749
1499 4717
1499 4942
1499 5573
1499 5906
1499 6231
1499 6986
1499 7197
1499 8127
1500 3750
1500 4718
1500 4943
1500 5574
1500 5907
1500 6232
1500 6987
1500 7198
1500 8128
1501 3751
1501 4719
1501 4944
1501 5575
1501 5908
1501 6233
1501 6988
1501 7199
1501 8129
1502 3752
1502 4720
1502 4945
1502 5576
1502 5909
1502 6234
1502 6989
1502 7200
1502 8130
1503 3753
1503 4721
1503 4946
1503 5577
1503 5910
1503 6235
1503 6990
1503 7201
1503 8131
1504 3754
1504 4722
1504 4947
1504 5578
1504 5911
1504 6236
1504 6991
1504 7202
1504 8132
1505 3755
1505 4723
1505 4948
1505 5579
1505 5912
1505 6237
1505 6992
1505 7203
1505 8133
1506 3756
1506 4724
1506 4949
1506 5580
1506 5913
1506 6238
1506 6993
1506 7204
1506 8134
1507 3757
1507 4725
1507 4950
1507 5581
1507 5914
1507 6239
1507 6994
1507 7205
1507 8135
1508 3758
1508 4726
1508 4951
1508 5582
1508 5915
1508 6240
1508 6995
1508 7206
1508 8136
1509 3759
1509 4564
1509 4952
1509 5583
1509 5916
1509 6241
1509 6996
1509 7207
1509 8137
1510 3760
1510 4565
1510 4953
1510 5584
1510 5917
1510 6242
1510 6997
1510 7208
1510 8138
1511 3761
1511 4566
1511 4954
1511 5585
1511 5918
1511 6243
1511 6998
1511 7209
1511 8139
1512 3762
1512 4567
1512 4955
1512 5586
1512 5919
1512 6244
1512 6999
1512 7210
1512 8140
1513 3763
1513 4568
1513 4956
1513 5587
1513 5920
1513 6245
1513 7000
1513 7211
1513 8141
1514 3764
1514 4569
1514 4957
1514 5588
1514 5921
1514 6246
1514 7001
1514 7212
1514 8142
1515 3765
1515 4570
1515 4958
1515 5589
1515 5922
1515 6247
1515 7002
1515 7213
1515 8143
1516 3766
1516 4571
1516 4959
1516 5590
1516 5923
1516 6248
1516 7003
1516 7214
1516 8144
1517 3767
1517 4572
1517 4960
1517 5591
1517 5924
1517 6249
1517 7004
1517 7215
1517 8145
1518 3768
1518 4573
1518 4961
1518 5592
1518 5925
1518 6250
1518 7005
1518 7216
1518 8146
1519 3769
1519 4574
1519 4962
1519 5593
1519 5926
1519 6251
1519 7006
1519 7217
1519 8147
1520 3770
1520 4575
1520 4963
1520 5594
1520 5927
1520 6252
1520 7007
1520 7218
1520 8148
1521 3771
1521 4576
1521 4964
1521 5595
1521 5928
1521 6253
1521 7008
1521 7219
1521 8149
1522 3772
1522 4577
1522 4965
1522 5596
1522 5929
1522 6254
1522 6846
1522 7220
1522 7987
1523 3773
1523 4578
1523 4966
1523 5597
1523 5930
1523 6255
1523 6847
1523 7221
1523 7988
1524 3774
1524 4579
1524 4967
1524 5598
1524 5931
1524 6256
1524 6848
1524 7222
1524 7989
1525 3775
1525 4580
1525 4968
1525 5599
1525 5932
1525 6257
1525 6849
1525 7223
1525 7990
1526 3776
1526 4581
1526 4969
1526 5600
1526 5933
1526 6258
1526 6850
1526 7224
1526 7991
1527 3777
1527 4582
1527 4970
1527 5601
1527 5934
1527 6259
1527 6851
1527 7225
1527 7992
1528 3778
1528 4583
1528 4971
1528 5602
1528 5935
1528 6260
1528 6852
1528 7226
1528 7993
1529 3779
1529 4584
1529 4972
1529 5603
1529 5936
1529 6261
1529 6853
1529 7227
1529 7994
1530 3780
1530 4585
1530 4973
1530 5604
1530 5937
1530 6262
1530 6854
1530 7228
1530 7995
1531 3781
1531 4586
1531 4974
1531 5605
1531 5938
1531 6263
1531 6855
1531 7229
1531 7996
1532 3782
1532 4587
1532 4975
1532 5606
1532 5939
1532 6264
1532 6856
1532 7230
1532 7997
1533 3783
1533 4588
1533 4976
1533 5607
1533 5940
1533 6265
1533 6857
1533 7231
1533 7998
1534 3784
1534 4589
1534 4977
1534 5608
1534 5941
1534 6266
1534 6858
1534 7232
1534 7999
1535 3785
1535 4590
1535 4978
1535 5609
1535 5942
1535 6267
1535 6859
1535 7233
1535 8000
1536 3786
1536 4591
1536 4979
1536 5610
1536 5943
1536 6268
1536 6860
1536 7234
1536 8001
1537 3787
1537 4592
1537 4980
1537 5611
1537 5944
1537 6269
1537 6861
1537 7235
1537 8002
1538 3788
1538 4593
1538 4981
1538 5612
1538 5945
1538 6270
1538 6862
1538 7236
1538 8003
1539 3789
1539 4594
1539 4982
1539 5613
1539 5946
1539 6271
1539 6863
1539 7237
1539 8004
1540 3790
1540 4595
1540 4983
1540 5614
1540 5947
1540 6272
1540 6864
1540 7238
1540 8005
1541 3791
1541 4596
1541 4984
1541 5615
1541 5948
1541 6273
1541 6865
1541 7239
1541 8006
1542 3792
1542 4597
1542 4985
1542 5616
1542 5949
1542 6274
1542 6866
1542 7240
1542 8007
1543 3793
1543 4598
1543 4986
1543 5617
1543 5950
1543 6275
1543 6867
1543 7241
1543 8008
1544 3794
1544 4599
1544 4987
1544 5618
1544 5951
1544 6276
1544 6868
1544 7242
1544 8009
1545 3795
1545 4600
1545 4988
1545 5619
1545 5952
1545 6277
1545 6869
1545 7243
1545 8010
1546 3796
1546 4601
1546 4989
1546 5620
1546 5953
1546 6278
1546 6870
1546 7244
1546 8011
1547 3797
1547 4602
1547 4990
1547 5621
1547 5954
1547 6279
1547 6871
1547 7245
1547 8012
1548 3798
1548 4603
1548 4991
1548 5622
1548 5955
1548 6280
1548 6872
1548 7246
1548 8013
1549 3799
1549 4604
1549 4992
1549 5623
1549 5956
1549 6281
1549 6873
1549 7247
1549 8014
1550 3800
1550 4605
1550 4993
1550 5624
1550 5957
1550 6282
1550 6874
1550 7248
1550 8015
1551 3801
1551 4606
1551 4994
1551 5625
1551 5958
1551 6283
1551 6875
1551 7249
1551 8016
1552 3802
1552 4607
1552 4995
1552 5626
1552 5959
1552 6284
1552 6876
1552 7250
1552 8017
1553 3803
1553 4608
1553 4996
1553 5627
1553 5960
1553 6285
1553 6877
1553 7251
1553 8018
1554 3804
1554 4609
1554 4997
1554 5628
1554 5961
1554 6286
1554 6878
1554 7252
1554 8019
1555 3805
1555 4610
1555 4998
1555 5629
1555 5962
1555 6287
1555 6879
1555 7253
1555 8020
1556 3806
1556 4611
1556 4999
1556 5630
1556 5963
1556 6288
1556 6880
1556 7254
1556 8021
1557 3807
1557 4612
1557 5000
1557 5631
1557 5964
1557 6289
1557 6881
1557 7255
1557 8022
1558 3808
1558 4613
1558 5001
1558 5632
1558 5965
1558 6290
1558 6882
1558 7256
1558 8023
1559 3809
1559 4614
1559 5002
1559 5633
1559 5966
1559 6291
1559 6883
1559 7257
1559 8024
1560 3810
1560 4615
1560 5003
1560 5634
1560 5967
1560 6292
1560 6884
1560 7258
1560 8025
1561 3811
1561 4616
1561 5004
1561 5635
1561 5968
1561 6293
1561 6885
1561 7259
1561 8026
1562 3812
1562 4617
1562 5005
1562 5636
1562 5969
1562 6294
1562 6886
1562 7260
1562 8027
1563 3813
1563 4618
1563 5006
1563 5637
1563 5970
1563 6295
1563 6887
1563 7261
1563 8028
1564 3814
1564 4619
1564 5007
1564 5638
1564 5971
1564 6296
1564 6888
1564 7262
1564 8029
1565 3815
1565 4620
1565 5008
1565 5639
1565 5972
1565 6297
1565 6889
1565 7263
1565 8030
1566 3816
1566 4621
1566 5009
1566 5640
1566 5973
1566 6298
1566 6890
1566 7264
1566 8031
1567 3817
1567 4622
1567 5010
1567 5641
1567 5974
1567 6299
1567 6891
1567 7265
1567 8032
1568 3818
1568 4623
1568 5011
1568 5642
1568 5975
1568 6300
1568 6892
1568 7266
1568 8033
1569 3819
1569 4624
1569 5012
1569 5643
1569 5976
1569 6301
1569 6893
1569 7267
1569 8034
1570 3820
1570 4625
1570 5013
1570 5644
1570 5977
1570 6302
1570 6894
1570 7268
1570 8035
1571 3821
1571 4626
1571 5014
1571 5645
1571 5978
1571 6303
1571 6895
1571 7269
1571 8036
1572 3822
1572 4627
1572 5015
1572 5646
1572 5979
1572 6304
1572 6896
1572 7270
1572 8037
1573 3823
1573 4628
1573 5016
1573 5647
1573 5980
1573 6305
1573 6897
1573 7271
1573 8038
1574 3824
1574 4629
1574 5017
1574 5648
1574 5981
1574 6306
1574 6898
1574 7272
1574 8039
1575 3825
1575 4630
1575 5018
1575 5649
1575 5982
1575 6307
1575 6899
1575 7273
1575 8040
1576 3826
1576 4631
1576 5019
1576 5650
1576 5983
1576 6308
1576 6900
1576 7274
1576 8041
1577 3827
1577 4632
1577 5020
1577 5651
1577 5984
1577 6309
1577 6901
1577 7275
1577 8042
1578 3828
1578 4633
1578 5021
1578 5652
1578 5985
1578 6310
1578 6902
1578 7276
1578 8043
1579 3829
1579 4634
1579 5022
1579 5653
1579 5986
1579 6311
1579 6903
1579 7277
1579 8044
1580 3830
1580 4635
1580 5023
1580 5654
1580 5987
1580 6312
1580 6904
1580 7278
1580 8045
1581 3831
1581 4636
1581 5024
1581 5655
1581 5988
1581 6313
1581 6905
1581 7279
1581 8046
1582 3832
1582 4637
1582 5025
1582 5656
1582 5989
1582 6314
1582 6906
1582 7280
1582 8047
1583 3833
1583 4638
1583 5026
1583 5657
1583 5990
1583 6315
1583 6907
1583 7281
1583 8048
1584 3834
1584 4639
1584 5027
1584 5658
1584 5991
1584 6316
1584 6908
1584 7282
1584 8049
1585 3835
1585 4640
1585 5028
1585 5659
1585 5992
1585 6317
1585 6909
1585 7283
1585 8050
1586 3836
1586 4641
1586 5029
1586 5660
1586 5993
1586 6318
1586 6910
1586 7284
1586 8051
1587 3837
1587 4642
1587 5030
1587 5661
1587 5994
1587 6319
1587 6911
1587 7285
1587 8052
1588 3838
1588 4643
1588 5031
1588 5662
1588 5995
1588 6320
1588 6912
1588 7286
1588 8053
1589 3839
1589 4644
1589 5032
1589 5663
1589 5996
1589 6321
1589 6913
1589 7287
1589 8054
1590 3840
1590 4645
1590 5033
1590 5664
1590 5997
1590 6322
1590 6914
1590 7288
1590 8055
1591 3841
1591 4646
1591 5034
1591 5665
1591 5998
1591 6323
1591 6915
1591 7289
1591 8056
1592 3842
1592 4647
1592 5035
1592 5666
1592 5999
1592 6324
1592 6916
1592 7290
1592 8057
1593 3843
1593 4648
1593 5036
1593 5667
1593 6000
1593 6325
1593 6917
1593 7291
1593 8058
1594 3844
1594 4649
1594 5037
1594 5668
1594 6001
1594 6326
1594 6918
1594 7292
1594 8059
1595 3845
1595 4650
1595 5038
1595 5669
1595 6002
1595 6327
1595 6919
1595 7293
1595 8060
1596 3846
1596 4651
1596 5039
1596 5670
1596 6003
1596 6328
1596 6920
1596 7294
1596 8061
1597 3847
1597 4652
1597 5040
1597 5671
1597 6004
1597 6329
1597 6921
1597 7295
1597 8062
1598 3848
1598 4653
1598 5041
1598 5672
1598 6005
1598 6330
1598 6922
1598 7296
1598 8063
1599 3849
1599 4654
1599 5042
1599 5673
1599 6006
1599 6331
1599 6923
1599 7297
1599 8064
1600 3850
1600 4655
1600 5043
1600 5674
1600 6007
1600 6332
1600 6924
1600 7298
1600 8065
1601 3851
1601 4656
1601 5044
1601 5675
1601 6008
1601 6333
1601 6925
1601 7299
1601 8066
1602 3852
1602 4657
1602 5045
1602 5676
1602 6009
1602 6334
1602 6926
1602 7300
1602 8067
1603 3853
1603 4658
1603 5046
1603 5677
1603 6010
1603 6335
1603 6927
1603 7301
1603 8068
1604 3854
1604 4659
1604 5047
1604 5678
1604 6011
1604 6336
1604 6928
1604 7302
1604 8069
1605 3855
1605 4660
1605 5048
1605 5679
1605 6012
1605 6337
1605 6929
1605 7303
1605 8070
1606 3856
1606 4661
1606 5049
1606 5680
1606 6013
1606 6338
1606 6930
1606 7304
1606 8071
1607 3857
1607 4662
1607 5050
1607 5681
1607 6014
1607 6339
1607 6931
1607 7305
1607 8072
1608 3858
1608 4663
1608 5051
1608 5682
1608 6015
1608 6340
1608 6932
1608 7306
1608 8073
1609 3859
1609 4664
1609 5052
1609 5683
1609 6016
1609 6341
1609 6933
1609 7307
1609 8074
1610 3860
1610 4665
1610 4890
1610 5684
1610 6017
1610 6342
1610 6934
1610 7308
1610 8075
1611 3861
1611 4666
1611 4891
1611 5685
1611 6018
1611 6343
1611 6935
1611 7309
1611 8076
1612 3862
1612 4667
1612 4892
1612 5686
1612 6019
1612 6344
1612 6936
1612 7310
1612 8077
1613 3863
1613 4668
1613 4893
1613 5687
1613 6020
1613 6345
1613 6937
1613 7311
1613 8078
1614 3864
1614 4669
1614 4894
1614 5688
1614 6021
1614 6346
1614 6938
1614 7312
1614 8079
1615 3865
1615 4670
1615 4895
1615 5689
1615 6022
1615 6347
1615 6939
1615 7313
1615 8080
1616 3866
1616 4671
1616 4896
1616 5690
1616 6023
1616 6348
1616 6940
1616 7314
1616 8081
1617 3867
1617 4672
1617 4897
1617 5691
1617 6024
1617 6349
1617 6941
1617 7315
1617 8082
1618 3868
1618 4673
1618 4898
1618 5692
1618 6025
1618 6350
1618 6942
1618 7316
1618 8083
1619 3869
1619 4674
1619 4899
1619 5693
1619 6026
1619 6351
1619 6943
1619 7317
1619 8084
1620 3870
1620 4675
1620 4900
1620 5694
1620 6027
1620 6352
1620 6944
1620 7318
1620 8085
1621 3871
1621 4676
1621 4901
1621 5695
1621 6028
1621 6353
1621 6945
1621 7319
1621 8086
1622 3872
1622 4677
1622 4902
1622 5696
1622 6029
1622 6354
1622 6946
1622 7320
1622 8087
1623 3873
1623 4678
1623 4903
1623 5697
1623 6030
1623 6355
1623 6947
1623 7321
1623 8088
1624 3874
1624 4679
1624 4904
1624 5698
1624 5868
1624 6356
1624 6948
1624 7322
1624 8089
1625 3875
1625 4680
1625 4905
1625 5699
1625 5869
1625 6194
1625 6949
1625 7323
1625 8090
1626 3876
1626 4681
1626 4906
1626 5700
1626 5870
1626 6195
1626 6950
1626 7324
1626 8091
1627 3877
1627 4682
1627 4907
1627 5701
1627 5871
1627 6196
1627 6951
1627 7325
1627 8092
1628 3878
1628 4683
1628 4908
1628 5702
1628 5872
1628 6197
1628 6952
1628 7326
1628 8093
1629 3879
1629 4684
1629 4909
1629 5703
1629 5873
1629 6198
1629 6953
1629 7327
1629 8094
1630 3964
1630 4836
1630 5102
1630 5727
1630 6062
1630 6410
1630 7078
1630 7489
1630 8219
1631 3965
1631 4837
1631 5103
1631 5728
1631 6063
1631 6411
1631 7079
1631 7490
1631 8220
1632 3966
1632 4838
1632 5104
1632 5729
1632 6064
1632 6412
1632 7080
1632 7491
1632 8221
1633 3967
1633 4839
1633 5105
1633 5730
1633 6065
1633 6413
1633 7081
1633 7492
1633 8222
1634 3968
1634 4840
1634 5106
1634 5731
1634 6066
1634 6414
1634 7082
1634 7493
1634 8223
1635 3969
1635 4841
1635 5107
1635 5732
1635 6067
1635 6415
1635 7083
1635 7494
1635 8224
1636 3970
1636 4842
1636 5108
1636 5733
1636 6068
1636 6416
1636 7084
1636 7495
1636 8225
1637 3971
1637 4843
1637 5109
1637 5734
1637 6069
1637 6417
1637 7085
1637 7496
1637 8226
1638 3972
1638 4844
1638 5110
1638 5735
1638 6070
1638 6418
1638 7086
1638 7497
1638 8227
1639 3973
1639 4845
1639 5111
1639 5736
1639 6071
1639 6419
1639 7087
1639 7335
1639 8228
1640 3974
1640 4846
1640 5112
1640 5737
1640 6072
1640 6420
1640 7088
1640 7336
1640 8229
1641 3975
1641 4847
1641 5113
1641 5738
1641 6073
1641 6421
1641 7089
1641 7337
1641 8230
1642 3976
1642 4848
1642 5114
1642 5739
1642 6074
1642 6422
1642 7090
1642 7338
1642 8231
1643 3977
1643 4849
1643 5115
1643 5740
1643 6075
1643 6423
1643 7091
1643 7339
1643 8232
1644 3978
1644 4850
1644 5116
1644 5741
1644 6076
1644 6424
1644 7092
1644 7340
1644 8233
1645 3979
1645 4851
1645 5117
1645 5742
1645 6077
1645 6425
1645 7093
1645 7341
1645 8234
1646 3980
1646 4852
1646 5118
1646 5743
1646 6078
1646 6426
1646 7094
1646 7342
1646 8235
1647 3981
1647 4853
1647 5119
1647 5744
1647 6079
1647 6427
1647 7095
1647 7343
1647 8236
1648 3982
1648 4854
1648 5120
1648 5745
1648 6080
1648 6428
1648 7096
1648 7344
1648 8237
1649 3983
1649 4855
1649 5121
1649 5746
1649 6081
1649 6429
1649 7097
1649 7345
1649 8238
1650 3984
1650 4856
1650 5122
1650 5747
1650 6082
1650 6430
1650 7098
1650 7346
1650 8239
1651 3985
1651 4857
1651 5123
1651 5748
1651 6083
1651 6431
1651 7099
1651 7347
1651 8240
1652 3986
1652 4858
1652 5124
1652 5749
1652 6084
1652 6432
1652 7100
1652 7348
1652 8241
1653 3987
1653 4859
1653 5125
1653 5750
1653 6085
1653 6433
1653 7101
1653 7349
1653 8242
1654 3988
1654 4860
1654 5126
1654 5751
1654 6086
1654 6434
1654 7102
1654 7350
1654 8243
1655 3989
1655 4861
1655 5127
1655 5752
1655 6087
1655 6435
1655 7103
1655 7351
1655 8244
1656 3990
1656 4862
1656 5128
1656 5753
1656 6088
1656 6436
1656 7104
1656 7352
1656 8245
1657 3991
1657 4863
1657 5129
1657 5754
1657 6089
1657 6437
1657 7105
1657 7353
1657 8246
1658 3992
1658 4864
1658 5130
1658 5755
1658 6090
1658 6438
1658 7106
1658 7354
1658 8247
1659 3993
1659 4865
1659 5131
1659 5756
1659 6091
1659 6439
1659 7107
1659 7355
1659 8248
1660 3994
1660 4866
1660 5132
1660 5757
1660 6092
1660 6440
1660 7108
1660 7356
1660 8249
1661 3995
1661 4867
1661 5133
1661 5758
1661 6093
1661 6441
1661 7109
1661 7357
1661 8250
1662 3996
1662 4868
1662 5134
1662 5759
1662 6094
1662 6442
1662 7110
1662 7358
1662 8251
1663 3997
1663 4869
1663 5135
1663 5760
1663 6095
1663 6443
1663 7111
1663 7359
1663 8252
1664 3998
1664 4870
1664 5136
1664 5761
1664 6096
1664 6444
1664 7112
1664 7360
1664 8253
1665 3999
1665 4871
1665 5137
1665 5762
1665 6097
1665 6445
1665 7113
1665 7361
1665 8254
1666 4000
1666 4872
1666 5138
1666 5763
1666 6098
1666 6446
1666 7114
1666 7362
1666 8255
1667 4001
1667 4873
1667 5139
1667 5764
1667 6099
1667 6447
1667 7115
1667 7363
1667 8256
1668 4002
1668 4874
1668 5140
1668 5765
1668 6100
1668 6448
1668 7116
1668 7364
1668 8257
1669 4003
1669 4875
1669 5141
1669 5766
1669 6101
1669 6449
1669 7117
1669 7365
1669 8258
1670 4004
1670 4876
1670 5142
1670 5767
1670 6102
1670 6450
1670 7118
1670 7366
1670 8259
1671 4005
1671 4877
1671 5143
1671 5768
1671 6103
1671 6451
1671 7119
1671 7367
1671 8260
1672 4006
1672 4878
1672 5144
1672 5769
1672 6104
1672 6452
1672 7120
1672 7368
1672 8261
1673 4007
1673 4879
1673 5145
1673 5770
1673 6105
1673 6453
1673 7121
1673 7369
1673 8262
1674 4008
1674 4880
1674 5146
1674 5771
1674 6106
1674 6454
1674 7122
1674 7370
1674 8263
1675 4009
1675 4881
1675 5147
1675 5772
1675 6107
1675 6455
1675 7123
1675 7371
1675 8264
1676 4010
1676 4882
1676 5148
1676 5773
1676 6108
1676 6456
1676 7124
1676 7372
1676 8265
1677 4011
1677 4883
1677 5149
1677 5774
1677 6109
1677 6457
1677 7125
1677 7373
1677 8266
1678 4012
1678 4884
1678 5150
1678 5775
1678 6110
1678 6458
1678 7126
1678 7374
1678 8267
1679 4013
1679 4885
1679 5151
1679 5776
1679 6111
1679 6459
1679 7127
1679 7375
1679 8268
1680 4014
1680 4886
1680 5152
1680 5777
1680 6112
1680 6460
1680 7128
1680 7376
1680 8269
1681 4015
1681 4887
1681 5153
1681 5778
1681 6113
1681 6461
1681 7129
1681 7377
1681 8270
1682 4016
1682 4888
1682 5154
1682 5779
1682 6114
1682 6462
1682 7130
1682 7378
1682 8271
1683 4017
1683 4889
1683 5155
1683 5780
1683 6115
1683 6463
1683 7131
1683 7379
1683 8272
1684 4018
1684 4727
1684 5156
1684 5781
1684 6116
1684 6464
1684 7132
1684 7380
1684 8273
1685 4019
1685 4728
1685 5157
1685 5782
1685 6117
1685 6465
1685 7133
1685 7381
1685 8274
1686 4020
1686 4729
1686 5158
1686 5783
1686 6118
1686 6466
1686 7134
1686 7382
1686 8275
1687 4021
1687 4730
1687 5159
1687 5784
1687 6119
1687 6467
1687 7135
1687 7383
1687 8276
1688 4022
1688 4731
1688 5160
1688 5785
1688 6120
1688 6468
1688 7136
1688 7384
1688 8277
1689 4023
1689 4732
1689 5161
1689 5786
1689 6121
1689 6469
1689 7137
1689 7385
1689 8278
1690 4024
1690 4733
1690 5162
1690 5787
1690 6122
1690 6470
1690 7138
1690 7386
1690 8279
1691 4025
1691 4734
1691 5163
1691 5788
1691 6123
1691 6471
1691 7139
1691 7387
1691 8280
1692 4026
1692 4735
1692 5164
1692 5789
1692 6124
1692 6472
1692 7140
1692 7388
1692 8281
1693 4027
1693 4736
1693 5165
1693 5790
1693 6125
1693 6473
1693 7141
1693 7389
1693 8282
1694 4028
1694 4737
1694 5166
1694 5791
1694 6126
1694 6474
1694 7142
1694 7390
1694 8283
1695 4029
1695 4738
1695 5167
1695 5792
1695 6127
1695 6475
1695 7143
1695 7391
1695 8284
1696 4030
1696 4739
1696 5168
1696 5793
1696 6128
1696 6476
1696 7144
1696 7392
1696 8285
1697 4031
1697 4740
1697 5169
1697 5794
1697 6129
1697 6477
1697 7145
1697 7393
1697 8286
1698 4032
1698 4741
1698 5170
1698 5795
1698 6130
1698 6478
1698 7146
1698 7394
1698 8287
1699 4033
1699 4742
1699 5171
1699 5796
1699 6131
1699 6479
1699 7147
1699 7395
1699 8288
1700 4034
1700 4743
1700 5172
1700 5797
1700 6132
1700 6480
1700 7148
1700 7396
1700 8289
1701 4035
1701 4744
1701 5173
1701 5798
1701 6133
1701 6481
1701 7149
1701 7397
1701 8290
1702 4036
1702 4745
1702 5174
1702 5799
1702 6134
1702 6482
1702 7150
1702 7398
1702 8291
1703 4037
1703 4746
1703 5175
1703 5800
1703 6135
1703 6483
1703 7151
1703 7399
1703 8292
1704 4038
1704 4747
1704 5176
1704 5801
1704 6136
1704 6484
1704 7152
1704 7400
1704 8293
1705 4039
1705 4748
1705 5177
1705 5802
1705 6137
1705 6485
1705 7153
1705 7401
1705 8294
1706 4040
1706 4749
1706 5178
1706 5803
1706 6138
1706 6486
1706 7154
1706 7402
1706 8295
1707 4041
1707 4750
1707 5179
1707 5804
1707 6139
1707 6487
1707 7155
1707 7403
1707 8296
1708 4042
1708 4751
1708 5180
1708 5805
1708 6140
1708 6488
1708 7156
1708 7404
1708 8297
1709 4043
1709 4752
1709 5181
1709 5806
1709 6141
1709 6489
1709 7157
1709 7405
1709 8298
1710 4044
1710 4753
1710 5182
1710 5807
1710 6142
1710 6490
1710 7158
1710 7406
1710 8299
1711 4045
1711 4754
1711 5183
1711 5808
1711 6143
1711 6491
1711 7159
1711 7407
1711 8300
1712 4046
1712 4755
1712 5184
1712 5809
1712 6144
1712 6492
1712 7160
1712 7408
1712 8301
1713 4047
1713 4756
1713 5185
1713 5810
1713 6145
1713 6493
1713 7161
1713 7409
1713 8302
1714 4048
1714 4757
1714 5186
1714 5811
1714 6146
1714 6494
1714 7162
1714 7410
1714 8303
1715 4049
1715 4758
1715 5187
1715 5812
1715 6147
1715 6495
1715 7163
1715 7411
1715 8304
1716 4050
1716 4759
1716 5188
1716 5813
1716 6148
1716 6496
1716 7164
1716 7412
1716 8305
1717 4051
1717 4760
1717 5189
1717 5814
1717 6149
1717 6497
1717 7165
1717 7413
1717 8306
1718 4052
1718 4761
1718 5190
1718 5815
1718 6150
1718 6498
1718 7166
1718 7414
1718 8307
1719 4053
1719 4762
1719 5191
1719 5816
1719 6151
1719 6499
1719 7167
1719 7415
1719 8308
1720 4054
1720 4763
1720 5192
1720 5817
1720 6152
1720 6500
1720 7168
1720 7416
1720 8309
1721 4055
1721 4764
1721 5193
1721 5818
1721 6153
1721 6501
1721 7169
1721 7417
1721 8310
1722 4056
1722 4765
1722 5194
1722 5819
1722 6154
1722 6502
1722 7170
1722 7418
1722 8311
1723 4057
1723 4766
1723 5195
1723 5820
1723 6155
1723 6503
1723 7171
1723 7419
1723 8312
1724 4058
1724 4767
1724 5196
1724 5821
1724 6156
1724 6504
1724 7009
1724 7420
1724 8150
1725 4059
1725 4768
1725 5197
1725 5822
1725 6157
1725 6505
1725 7010
1725 7421
1725 8151
1726 4060
1726 4769
1726 5198
1726 5823
1726 6158
1726 6506
1726 7011
1726 7422
1726 8152
1727 4061
1727 4770
1727 5199
1727 5824
1727 6159
1727 6507
1727 7012
1727 7423
1727 8153
1728 4062
1728 4771
1728 5200
1728 5825
1728 6160
1728 6508
1728 7013
1728 7424
1728 8154
1729 4063
1729 4772
1729 5201
1729 5826
1729 6161
1729 6509
1729 7014
1729 7425
1729 8155
1730 4064
1730 4773
1730 5202
1730 5827
1730 6162
1730 6510
1730 7015
1730 7426
1730 8156
1731 4065
1731 4774
1731 5203
1731 5828
1731 6163
1731 6511
1731 7016
1731 7427
1731 8157
1732 4066
1732 4775
1732 5204
1732 5829
1732 6164
1732 6512
1732 7017
1732 7428
1732 8158
1733 4067
1733 4776
1733 5205
1733 5830
1733 6165
1733 6513
1733 7018
1733 7429
1733 8159
1734 4068
1734 4777
1734 5206
1734 5831
1734 6166
1734 6514
1734 7019
1734 7430
1734 8160
1735 4069
1735 4778
1735 5207
1735 5832
1735 6167
1735 6515
1735 7020
1735 7431
1735 8161
1736 4070
1736 4779
1736 5208
1736 5833
1736 6168
1736 6516
1736 7021
1736 7432
1736 8162
1737 4071
1737 4780
1737 5209
1737 5834
1737 6169
1737 6517
1737 7022
1737 7433
1737 8163
1738 4072
1738 4781
1738 5210
1738 5835
1738 6170
1738 6518
1738 7023
1738 7434
1738 8164
1739 4073
1739 4782
1739 5211
1739 5836
1739 6171
1739 6519
1739 7024
1739 7435
1739 8165
1740 4074
1740 4783
1740 5212
1740 5837
1740 6172
1740 6357
1740 7025
1740 7436
1740 8166
1741 3912
1741 4784
1741 5213
1741 5838
1741 6173
1741 6358
1741 7026
1741 7437
1741 8167
1742 3913
1742 4785
1742 5214
1742 5839
1742 6174
1742 6359
1742 7027
1742 7438
1742 8168
1743 3914
1743 4786
1743 5215
1743 5840
1743 6175
1743 6360
1743 7028
1743 7439
1743 8169
1744 3915
1744 4787
1744 5053
1744 5841
1744 6176
1744 6361
1744 7029
1744 7440
1744 8170
1745 3916
1745 4788
1745 5054
1745 5842
1745 6177
1745 6362
1745 7030
1745 7441
1745 8171
1746 3917
1746 4789
1746 5055
1746 5843
1746 6178
1746 6363
1746 7031
1746 7442
1746 8172
1747 3918
1747 4790
1747 5056
1747 5844
1747 6179
1747 6364
1747 7032
1747 7443
1747 8173
1748 3919
1748 4791
1748 5057
1748 5845
1748 6180
1748 6365
1748 7033
1748 7444
1748 8174
1749 3920
1749 4792
1749 5058
1749 5846
1749 6181
1749 6366
1749 7034
1749 7445
1749 8175
1750 3921
1750 4793
1750 5059
1750 5847
1750 6182
1750 6367
1750 7035
1750 7446
1750 8176
1751 3922
1751 4794
1751 5060
1751 5848
1751 6183
1751 6368
1751 7036
1751 7447
1751 8177
1752 3923
1752 4795
1752 5061
1752 5849
1752 6184
1752 6369
1752 7037
1752 7448
1752 8178
1753 3924
1753 4796
1753 5062
1753 5850
1753 6185
1753 6370
1753 7038
1753 7449
1753 8179
1754 3925
1754 4797
1754 5063
1754 5851
1754 6186
1754 6371
1754 7039
1754 7450
1754 8180
1755 3926
1755 4798
1755 5064
1755 5852
1755 6187
1755 6372
1755 7040
1755 7451
1755 8181
1756 3927
1756 4799
1756 5065
1756 5853
1756 6188
1756 6373
1756 7041
1756 7452
1756 8182
1757 3928
1757 4800
1757 5066
1757 5854
1757 6189
1757 6374
1757 7042
1757 7453
1757 8183
1758 3929
1758 4801
1758 5067
1758 5855
1758 6190
1758 6375
1758 7043
1758 7454
1758 8184
1759 3930
1759 4802
1759 5068
1759 5856
1759 6191
1759 6376
1759 7044
1759 7455
1759 8185
1760 3931
1760 4803
1760 5069
1760 5857
1760 6192
1760 6377
1760 7045
1760 7456
1760 8186
1761 3932
1761 4804
1761 5070
1761 5858
1761 6193
1761 6378
1761 7046
1761 7457
1761 8187
1762 3933
1762 4805
1762 5071
1762 5859
1762 6031
1762 6379
1762 7047
1762 7458
1762 8188
1763 3934
1763 4806
1763 5072
1763 5860
1763 6032
1763 6380
1763 7048
1763 7459
1763 8189
1764 3935
1764 4807
1764 5073
1764 5861
1764 6033
1764 6381
1764 7049
1764 7460
1764 8190
1765 3936
1765 4808
1765 5074
1765 5862
1765 6034
1765 6382
1765 7050
1765 7461
1765 8191
1766 3937
1766 4809
1766 5075
1766 5863
1766 6035
1766 6383
1766 7051
1766 7462
1766 8192
1767 3938
1767 4810
1767 5076
1767 5864
1767 6036
1767 6384
1767 7052
1767 7463
1767 8193
1768 3939
1768 4811
1768 5077
1768 5865
1768 6037
1768 6385
1768 7053
1768 7464
1768 8194
1769 3940
1769 4812
1769 5078
1769 5866
1769 6038
1769 6386
1769 7054
1769 7465
1769 8195
1770 3941
1770 4813
1770 5079
1770 5867
1770 6039
1770 6387
1770 7055
1770 7466
1770 8196
1771 3942
1771 4814
1771 5080
1771 5705
1771 6040
1771 6388
1771 7056
1771 7467
1771 8197
1772 3943
1772 4815
1772 5081
1772 5706
1772 6041
1772 6389
1772 7057
1772 7468
1772 8198
1773 3944
1773 4816
1773 5082
1773 5707
1773 6042
1773 6390
1773 7058
1773 7469
1773 8199
1774 3945
1774 4817
1774 5083
1774 5708
1774 6043
1774 6391
1774 7059
1774 7470
1774 8200
1775 3946
1775 4818
1775 5084
1775 5709
1775 6044
1775 6392
1775 7060
1775 7471
1775 8201
1776 3947
1776 4819
1776 5085
1776 5710
1776 6045
1776 6393
1776 7061
1776 7472
1776 8202
1777 3948
1777 4820
1777 5086
1777 5711
1777 6046
1777 6394
1777 7062
1777 7473
1777 8203
1778 3949
1778 4821
1778 5087
1778 5712
1778 6047
1778 6395
1778 7063
1778 7474
1778 8204
1779 3950
1779 4822
1779 5088
1779 5713
1779 6048
1779 6396
1779 7064
1779 7475
1779 8205
1780 3951
1780 4823
1780 5089
1780 5714
1780 6049
1780 6397
1780 7065
1780 7476
1780 8206
1781 3952
1781 4824
1781 5090
1781 5715
1781 6050
1781 6398
1781 7066
1781 7477
1781 8207
1782 3953
1782 4825
1782 5091
1782 5716
1782 6051
1782 6399
1782 7067
1782 7478
1782 8208
1783 3954
1783 4826
1783 5092
1783 5717
1783 6052
1783 6400
1783 7068
1783 7479
1783 8209
1784 3955
1784 4827
1784 5093
1784 5718
1784 6053
1784 6401
1784 7069
1784 7480
1784 8210
1785 3956
1785 4828
1785 5094
1785 5719
1785 6054
1785 6402
1785 7070
1785 7481
1785 8211
1786 3957
1786 4829
1786 5095
1786 5720
1786 6055
1786 6403
1786 7071
1786 7482
1786 8212
1787 3958
1787 4830
1787 5096
1787 5721
1787 6056
1787 6404
1787 7072
1787 7483
1787 8213
1788 3959
1788 4831
1788 5097
1788 5722
1788 6057
1788 6405
1788 7073
1788 7484
1788 8214
1789 3960
1789 4832
1789 5098
1789 5723
1789 6058
1789 6406
1789 7074
1789 7485
1789 8215
1790 3961
1790 4833
1790 5099
1790 5724
1790 6059
1790 6407
1790 7075
1790 7486
1790 8216
1791 3962
1791 4834
1791 5100
1791 5725
1791 6060
1791 6408
1791 7076
1791 7487
1791 8217
1792 3963
1792 4835
1792 5101
1792 5726
1792 6061
1792 6409
1792 7077
1792 7488
1792 8218
1793 4235
1793 4937
1793 5279
1793 5873
1793 6327
1793 6658
1793 7284
1793 7533
1793 8425
1794 4236
1794 4938
1794 5280
1794 5874
1794 6328
1794 6659
1794 7285
1794 7534
1794 8426
1795 4237
1795 4939
1795 5281
1795 5875
1795 6329
1795 6660
1795 7286
1795 7535
1795 8427
1796 4075
1796 4940
1796 5282
1796 5876
1796 6330
1796 6661
1796 7287
1796 7536
1796 8428
1797 4076
1797 4941
1797 5283
1797 5877
1797 6331
1797 6662
1797 7288
1797 7537
1797 8429
1798 4077
1798 4942
1798 5284
1798 5878
1798 6332
1798 6663
1798 7289
1798 7538
1798 8430
1799 4078
1799 4943
1799 5285
1799 5879
1799 6333
1799 6664
1799 7290
1799 7539
1799 8431
1800 4079
1800 4944
1800 5286
1800 5880
1800 6334
1800 6665
1800 7291
1800 7540
1800 8432
1801 4080
1801 4945
1801 5287
1801 5881
1801 6335
1801 6666
1801 7292
1801 7541
1801 8433
1802 4081
1802 4946
1802 5288
1802 5882
1802 6336
1802 6667
1802 7293
1802 7542
1802 8434
1803 4082
1803 4947
1803 5289
1803 5883
1803 6337
1803 6668
1803 7294
1803 7543
1803 8435
1804 4083
1804 4948
1804 5290
1804 5884
1804 6338
1804 6669
1804 7295
1804 7544
1804 8436
1805 4084
1805 4949
1805 5291
1805 5885
1805 6339
1805 6670
1805 7296
1805 7545
1805 8437
1806 4085
1806 4950
1806 5292
1806 5886
1806 6340
1806 6671
1806 7297
1806 7546
1806 8438
1807 4086
1807 4951
1807 5293
1807 5887
1807 6341
1807 6672
1807 7298
1807 7547
1807 8439
1808 4087
1808 4952
1808 5294
1808 5888
1808 6342
1808 6673
1808 7299
1808 7548
1808 8440
1809 4088
1809 4953
1809 5295
1809 5889
1809 6343
1809 6674
1809 7300
1809 7549
1809 8441
1810 4089
1810 4954
1810 5296
1810 5890
1810 6344
1810 6675
1810 7301
1810 7550
1810 8442
1811 4090
1811 4955
1811 5297
1811 5891
1811 6345
1811 6676
1811 7302
1811 7551
1811 8443
1812 4091
1812 4956
1812 5298
1812 5892
1812 6346
1812 6677
1812 7303
1812 7552
1812 8444
1813 4092
1813 4957
1813 5299
1813 5893
1813 6347
1813 6678
1813 7304
1813 7553
1813 8445
1814 4093
1814 4958
1814 5300
1814 5894
1814 6348
1814 6679
1814 7305
1814 7554
1814 8446
1815 4094
1815 4959
1815 5301
1815 5895
1815 6349
1815 6680
1815 7306
1815 7555
1815 8447
1816 4095
1816 4960
1816 5302
1816 5896
1816 6350
1816 6681
1816 7307
1816 7556
1816 8448
1817 4096
1817 4961
1817 5303
1817 5897
1817 6351
1817 6682
1817 7308
1817 7557
1817 8449
1818 4097
1818 4962
1818 5304
1818 5898
1818 6352
1818 6520
1818 7309
1818 7558
1818 8450
1819 4098
1819 4963
1819 5305
1819 5899
1819 6353
1819 6521
1819 7310
1819 7559
1819 8451
1820 4099
1820 4964
1820 5306
1820 5900
1820 6354
1820 6522
1820 7311
1820 7560
1820 8452
1821 4100
1821 4965
1821 5307
1821 5901
1821 6355
1821 6523
1821 7312
1821 7561
1821 8453
1822 4101
1822 4966
1822 5308
1822 5902
1822 6356
1822 6524
1822 7313
1822 7562
1822 8454
1823 4102
1823 4967
1823 5309
1823 5903
1823 6194
1823 6525
1823 7314
1823 7563
1823 8455
1824 4103
1824 4968
1824 5310
1824 5904
1824 6195
1824 6526
1824 7315
1824 7564
1824 8456
1825 4104
1825 4969
1825 5311
1825 5905
1825 6196
1825 6527
1825 7316
1825 7565
1825 8457
1826 4105
1826 4970
1826 5312
1826 5906
1826 6197
1826 6528
1826 7317
1826 7566
1826 8458
1827 4106
1827 4971
1827 5313
1827 5907
1827 6198
1827 6529
1827 7318
1827 7567
1827 8459
1828 4107
1828 4972
1828 5314
1828 5908
1828 6199
1828 6530
1828 7319
1828 7568
1828 8460
1829 4108
1829 4973
1829 5315
1829 5909
1829 6200
1829 6531
1829 7320
1829 7569
1829 8461
1830 4109
1830 4974
1830 5316
1830 5910
1830 6201
1830 6532
1830 7321
1830 7570
1830 8462
1831 4110
1831 4975
1831 5317
1831 5911
1831 6202
1831 6533
1831 7322
1831 7571
1831 8463
1832 4111
1832 4976
1832 5318
1832 5912
1832 6203
1832 6534
1832 7323
1832 7572
1832 8464
1833 4112
1833 4977
1833 5319
1833 5913
1833 6204
1833 6535
1833 7324
1833 7573
1833 8465
1834 4113
1834 4978
1834 5320
1834 5914
1834 6205
1834 6536
1834 7325
1834 7574
1834 8466
1835 4114
1835 4979
1835 5321
1835 5915
1835 6206
1835 6537
1835 7326
1835 7575
1835 8467
1836 4115
1836 4980
1836 5322
1836 5916
1836 6207
1836 6538
1836 7327
1836 7576
1836 8468
1837 4116
1837 4981
1837 5323
1837 5917
1837 6208
1837 6539
1837 7328
1837 7577
1837 8469
1838 4117
1838 4982
1838 5324
1838 5918
1838 6209
1838 6540
1838 7329
1838 7578
1838 8470
1839 4118
1839 4983
1839 5325
1839 5919
1839 6210
1839 6541
1839 7330
1839 7579
1839 8471
1840 4119
1840 4984
1840 5326
1840 5920
1840 6211
1840 6542
1840 7331
1840 7580
1840 8472
1841 4120
1841 4985
1841 5327
1841 5921
1841 6212
1841 6543
1841 7332
1841 7581
1841 8473
1842 4121
1842 4986
1842 5328
1842 5922
1842 6213
1842 6544
1842 7333
1842 7582
1842 8474
1843 4122
1843 4987
1843 5329
1843 5923
1843 6214
1843 6545
1843 7334
1843 7583
1843 8475
1844 4123
1844 4988
1844 5330
1844 5924
1844 6215
1844 6546
1844 7172
1844 7584
1844 8313
1845 4124
1845 4989
1845 5331
1845 5925
1845 6216
1845 6547
1845 7173
1845 7585
1845 8314
1846 4125
1846 4990
1846 5332
1846 5926
1846 6217
1846 6548
1846 7174
1846 7586
1846 8315
1847 4126
1847 4991
1847 5333
1847 5927
1847 6218
1847 6549
1847 7175
1847 7587
1847 8316
1848 4127
1848 4992
1848 5334
1848 5928
1848 6219
1848 6550
1848 7176
1848 7588
1848 8317
1849 4128
1849 4993
1849 5335
1849 5929
1849 6220
1849 6551
1849 7177
1849 7589
1849 8318
1850 4129
1850 4994
1850 5336
1850 5930
1850 6221
1850 6552
1850 7178
1850 7590
1850 8319
1851 4130
1851 4995
1851 5337
1851 5931
1851 6222
1851 6553
1851 7179
1851 7591
1851 8320
1852 4131
1852 4996
1852 5338
1852 5932
1852 6223
1852 6554
1852 7180
1852 7592
1852 8321
1853 4132
1853 4997
1853 5339
1853 5933
1853 6224
1853 6555
1853 7181
1853 7593
1853 8322
1854 4133
1854 4998
1854 5340
1854 5934
1854 6225
1854 6556
1854 7182
1854 7594
1854 8323
1855 4134
1855 4999
1855 5341
1855 5935
1855 6226
1855 6557
1855 7183
1855 7595
1855 8324
1856 4135
1856 5000
1856 5342
1856 5936
1856 6227
1856 6558
1856 7184
1856 7596
1856 8325
1857 4136
1857 5001
1857 5343
1857 5937
1857 6228
1857 6559
1857 7185
1857 7597
1857 8326
1858 4137
1858 5002
1858 5344
1858 5938
1858 6229
1858 6560
1858 7186
1858 7598
1858 8327
1859 4138
1859 5003
1859 5345
1859 5939
1859 6230
1859 6561
1859 7187
1859 7599
1859 8328
1860 4139
1860 5004
1860 5346
1860 5940
1860 6231
1860 6562
1860 7188
1860 7600
1860 8329
1861 4140
1861 5005
1861 5347
1861 5941
1861 6232
1861 6563
1861 7189
1861 7601
1861 8330
1862 4141
1862 5006
1862 5348
1862 5942
1862 6233
1862 6564
1862 7190
1862 7602
1862 8331
1863 4142
1863 5007
1863 5349
1863 5943
1863 6234
1863 6565
1863 7191
1863 7603
1863 8332
1864 4143
1864 5008
1864 5350
1864 5944
1864 6235
1864 6566
1864 7192
1864 7604
1864 8333
1865 4144
1865 5009
1865 5351
1865 5945
1865 6236
1865 6567
1865 7193
1865 7605
1865 8334
1866 4145
1866 5010
1866 5352
1866 5946
1866 6237
1866 6568
1866 7194
1866 7606
1866 8335
1867 4146
1867 5011
1867 5353
1867 5947
1867 6238
1867 6569
1867 7195
1867 7607
1867 8336
1868 4147
1868 5012
1868 5354
1868 5948
1868 6239
1868 6570
1868 7196
1868 7608
1868 8337
1869 4148
1869 5013
1869 5355
1869 5949
1869 6240
1869 6571
1869 7197
1869 7609
1869 8338
1870 4149
1870 5014
1870 5356
1870 5950
1870 6241
1870 6572
1870 7198
1870 7610
1870 8339
1871 4150
1871 5015
1871 5357
1871 5951
1871 6242
1871 6573
1871 7199
1871 7611
1871 8340
1872 4151
1872 5016
1872 5358
1872 5952
1872 6243
1872 6574
1872 7200
1872 7612
1872 8341
1873 4152
1873 5017
1873 5359
1873 5953
1873 6244
1873 6575
1873 7201
1873 7613
1873 8342
1874 4153
1874 5018
1874 5360
1874 5954
1874 6245
1874 6576
1874 7202
1874 7614
1874 8343
1875 4154
1875 5019
1875 5361
1875 5955
1875 6246
1875 6577
1875 7203
1875 7615
1875 8344
1876 4155
1876 5020
1876 5362
1876 5956
1876 6247
1876 6578
1876 7204
1876 7616
1876 8345
1877 4156
1877 5021
1877 5363
1877 5957
1877 6248
1877 6579
1877 7205
1877 7617
1877 8346
1878 4157
1878 5022
1878 5364
1878 5958
1878 6249
1878 6580
1878 7206
1878 7618
1878 8347
1879 4158
1879 5023
1879 5365
1879 5959
1879 6250
1879 6581
1879 7207
1879 7619
1879 8348
1880 4159
1880 5024
1880 5366
1880 5960
1880 6251
1880 6582
1880 7208
1880 7620
1880 8349
1881 4160
1881 5025
1881 5367
1881 5961
1881 6252
1881 6583
1881 7209
1881 7621
1881 8350
1882 4161
1882 5026
1882 5368
1882 5962
1882 6253
1882 6584
1882 7210
1882 7622
1882 8351
1883 4162
1883 5027
1883 5369
1883 5963
1883 6254
1883 6585
1883 7211
1883 7623
1883 8352
1884 4163
1884 5028
1884 5370
1884 5964
1884 6255
1884 6586
1884 7212
1884 7624
1884 8353
1885 4164
1885 5029
1885 5371
1885 5965
1885 6256
1885 6587
1885 7213
1885 7625
1885 8354
1886 4165
1886 5030
1886 5372
1886 5966
1886 6257
1886 6588
1886 7214
1886 7626
1886 8355
1887 4166
1887 5031
1887 5373
1887 5967
1887 6258
1887 6589
1887 7215
1887 7627
1887 8356
1888 4167
1888 5032
1888 5374
1888 5968
1888 6259
1888 6590
1888 7216
1888 7628
1888 8357
1889 4168
1889 5033
1889 5375
1889 5969
1889 6260
1889 6591
1889 7217
1889 7629
1889 8358
1890 4169
1890 5034
1890 5376
1890 5970
1890 6261
1890 6592
1890 7218
1890 7630
1890 8359
1891 4170
1891 5035
1891 5377
1891 5971
1891 6262
1891 6593
1891 7219
1891 7631
1891 8360
1892 4171
1892 5036
1892 5378
1892 5972
1892 6263
1892 6594
1892 7220
1892 7632
1892 8361
1893 4172
1893 5037
1893 5216
1893 5973
1893 6264
1893 6595
1893 7221
1893 7633
1893 8362
1894 4173
1894 5038
1894 5217
1894 5974
1894 6265
1894 6596
1894 7222
1894 7634
1894 8363
1895 4174
1895 5039
1895 5218
1895 5975
1895 6266
1895 6597
1895 7223
1895 7635
1895 8364
1896 4175
1896 5040
1896 5219
1896 5976
1896 6267
1896 6598
1896 7224
1896 7636
1896 8365
1897 4176
1897 5041
1897 5220
1897 5977
1897 6268
1897 6599
1897 7225
1897 7637
1897 8366
1898 4177
1898 5042
1898 5221
1898 5978
1898 6269
1898 6600
1898 7226
1898 7638
1898 8367
1899 4178
1899 5043
1899 5222
1899 5979
1899 6270
1899 6601
1899 7227
1899 7639
1899 8368
1900 4179
1900 5044
1900 5223
1900 5980
1900 6271
1900 6602
1900 7228
1900 7640
1900 8369
1901 4180
1901 5045
1901 5224
1901 5981
1901 6272
1901 6603
1901 7229
1901 7641
1901 8370
1902 4181
1902 5046
1902 5225
1902 5982
1902 6273
1902 6604
1902 7230
1902 7642
1902 8371
1903 4182
1903 5047
1903 5226
1903 5983
1903 6274
1903 6605
1903 7231
1903 7643
1903 8372
1904 4183
1904 5048
1904 5227
1904 5984
1904 6275
1904 6606
1904 7232
1904 7644
1904 8373
1905 4184
1905 5049
1905 5228
1905 5985
1905 6276
1905 6607
1905 7233
1905 7645
1905 8374
1906 4185
1906 5050
1906 5229
1906 5986
1906 6277
1906 6608
1906 7234
1906 7646
1906 8375
1907 4186
1907 5051
1907 5230
1907 5987
1907 6278
1907 6609
1907 7235
1907 7647
1907 8376
1908 4187
1908 5052
1908 5231
1908 5988
1908 6279
1908 6610
1908 7236
1908 7648
1908 8377
1909 4188
1909 4890
1909 5232
1909 5989
1909 6280
1909 6611
1909 7237
1909 7649
1909 8378
1910 4189
1910 4891
1910 5233
1910 5990
1910 6281
1910 6612
1910 7238
1910 7650
1910 8379
1911 4190
1911 4892
1911 5234
1911 5991
1911 6282
1911 6613
1911 7239
1911 7651
1911 8380
1912 4191
1912 4893
1912 5235
1912 5992
1912 6283
1912 6614
1912 7240
1912 7652
1912 8381
1913 4192
1913 4894
1913 5236
1913 5993
1913 6284
1913 6615
1913 7241
1913 7653
1913 8382
1914 4193
1914 4895
1914 5237
1914 5994
1914 6285
1914 6616
1914 7242
1914 7654
1914 8383
1915 4194
1915 4896
1915 5238
1915 5995
1915 6286
1915 6617
1915 7243
1915 7655
1915 8384
1916 4195
1916 4897
1916 5239
1916 5996
1916 6287
1916 6618
1916 7244
1916 7656
1916 8385
1917 4196
1917 4898
1917 5240
1917 5997
1917 6288
1917 6619
1917 7245
1917 7657
1917 8386
1918 4197
1918 4899
1918 5241
1918 5998
1918 6289
1918 6620
1918 7246
1918 7658
1918 8387
1919 4198
1919 4900
1919 5242
1919 5999
1919 6290
1919 6621
1919 7247
1919 7659
1919 8388
1920 4199
1920 4901
1920 5243
1920 6000
1920 6291
1920 6622
1920 7248
1920 7660
1920 8389
1921 4200
1921 4902
1921 5244
1921 6001
1921 6292
1921 6623
1921 7249
1921 7498
1921 8390
1922 4201
1922 4903
1922 5245
1922 6002
1922 6293
1922 6624
1922 7250
1922 7499
1922 8391
1923 4202
1923 4904
1923 5246
1923 6003
1923 6294
1923 6625
1923 7251
1923 7500
1923 8392
1924 4203
1924 4905
1924 5247
1924 6004
1924 6295
1924 6626
1924 7252
1924 7501
1924 8393
1925 4204
1925 4906
1925 5248
1925 6005
1925 6296
1925 6627
1925 7253
1925 7502
1925 8394
1926 4205
1926 4907
1926 5249
1926 6006
1926 6297
1926 6628
1926 7254
1926 7503
1926 8395
1927 4206
1927 4908
1927 5250
1927 6007
1927 6298
1927 6629
1927 7255
1927 7504
1927 8396
1928 4207
1928 4909
1928 5251
1928 6008
1928 6299
1928 6630
1928 7256
1928 7505
1928 8397
1929 4208
1929 4910
1929 5252
1929 6009
1929 6300
1929 6631
1929 7257
1929 7506
1929 8398
1930 4209
1930 4911
1930 5253
1930 6010
1930 6301
1930 6632
1930 7258
1930 7507
1930 8399
1931 4210
1931 4912
1931 5254
1931 6011
1931 6302
1931 6633
1931 7259
1931 7508
1931 8400
1932 4211
1932 4913
1932 5255
1932 6012
1932 6303
1932 6634
1932 7260
1932 7509
1932 8401
1933 4212
1933 4914
1933 5256
1933 6013
1933 6304
1933 6635
1933 7261
1933 7510
1933 8402
1934 4213
1934 4915
1934 5257
1934 6014
1934 6305
1934 6636
1934 7262
1934 7511
1934 8403
1935 4214
1935 4916
1935 5258
1935 6015
1935 6306
1935 6637
1935 7263
1935 7512
1935 8404
1936 4215
1936 4917
1936 5259
1936 6016
1936 6307
1936 6638
1936 7264
1936 7513
1936 8405
1937 4216
1937 4918
1937 5260
1937 6017
1937 6308
1937 6639
1937 7265
1937 7514
1937 8406
1938 4217
1938 4919
1938 5261
1938 6018
1938 6309
1938 6640
1938 7266
1938 7515
1938 8407
1939 4218
1939 4920
1939 5262
1939 6019
1939 6310
1939 6641
1939 7267
1939 7516
1939 8408
1940 4219
1940 4921
1940 5263
1940 6020
1940 6311
1940 6642
1940 7268
1940 7517
1940 8409
1941 4220
1941 4922
1941 5264
1941 6021
1941 6312
1941 6643
1941 7269
1941 7518
1941 8410
1942 4221
1942 4923
1942 5265
1942 6022
1942 6313
1942 6644
1942 7270
1942 7519
1942 8411
1943 4222
1943 4924
1943 5266
1943 6023
1943 6314
1943 6645
1943 7271
1943 7520
1943 8412
1944 4223
1944 4925
1944 5267
1944 6024
1944 6315
1944 6646
1944 7272
1944 7521
1944 8413
1945 4224
1945 4926
1945 5268
1945 6025
1945 6316
1945 6647
1945 7273
1945 7522
1945 8414
1946 4225
1946 4927
1946 5269
1946 6026
1946 6317
1946 6648
1946 7274
1946 7523
1946 8415
1947 4226
1947 4928
1947 5270
1947 6027
1947 6318
1947 6649
1947 7275
1947 7524
1947 8416
1948 4227
1948 4929
1948 5271
1948 6028
1948 6319
1948 6650
1948 7276
1948 7525
1948 8417
1949 4228
1949 4930
1949 5272
1949 6029
1949 6320
1949 6651
1949 7277
1949 7526
1949 8418
1950 4229
1950 4931
1950 5273
1950 6030
1950 6321
1950 6652
1950 7278
1950 7527
1950 8419
1951 4230
1951 4932
1951 5274
1951 5868
1951 6322
1951 6653
1951 7279
1951 7528
1951 8420
1952 4231
1952 4933
1952 5275
1952 5869
1952 6323
1952 6654
1952 7280
1952 7529
1952 8421
1953 4232
1953 4934
1953 5276
1953 5870
1953 6324
1953 6655
1953 7281
1953 7530
1953 8422
1954 4233
1954 4935
1954 5277
1954 5871
1954 6325
1954 6656
1954 7282
1954 7531
1954 8423
1955 4234
1955 4936
1955 5278
1955 5872
1955 6326
1955 6657
1955 7283
1955 7532
1955 8424
1956 4304
1956 5160
1956 5460
1956 6084
1956 6365
1956 6744
1956 7479
1956 7706
1956 8620
1957 4305
1957 5161
1957 5461
1957 6085
1957 6366
1957 6745
1957 7480
1957 7707
1957 8621
1958 4306
1958 5162
1958 5462
1958 6086
1958 6367
1958 6746
1958 7481
1958 7708
1958 8622
1959 4307
1959 5163
1959 5463
1959 6087
1959 6368
1959 6747
1959 7482
1959 7709
1959 8623
1960 4308
1960 5164
1960 5464
1960 6088
1960 6369
1960 6748
1960 7483
1960 7710
1960 8624
1961 4309
1961 5165
1961 5465
1961 6089
1961 6370
1961 6749
1961 7484
1961 7711
1961 8625
1962 4310
1962 5166
1962 5466
1962 6090
1962 6371
1962 6750
1962 7485
1962 7712
1962 8626
1963 4311
1963 5167
1963 5467
1963 6091
1963 6372
1963 6751
1963 7486
1963 7713
1963 8627
1964 4312
1964 5168
1964 5468
1964 6092
1964 6373
1964 6752
1964 7487
1964 7714
1964 8628
1965 4313
1965 5169
1965 5469
1965 6093
1965 6374
1965 6753
1965 7488
1965 7715
1965 8629
1966 4314
1966 5170
1966 5470
1966 6094
1966 6375
1966 6754
1966 7489
1966 7716
1966 8630
1967 4315
1967 5171
1967 5471
1967 6095
1967 6376
1967 6755
1967 7490
1967 7717
1967 8631
1968 4316
1968 5172
1968 5472
1968 6096
1968 6377
1968 6756
1968 7491
1968 7718
1968 8632
1969 4317
1969 5173
1969 5473
1969 6097
1969 6378
1969 6757
1969 7492
1969 7719
1969 8633
1970 4318
1970 5174
1970 5474
1970 6098
1970 6379
1970 6758
1970 7493
1970 7720
1970 8634
1971 4319
1971 5175
1971 5475
1971 6099
1971 6380
1971 6759
1971 7494
1971 7721
1971 8635
1972 4320
1972 5176
1972 5476
1972 6100
1972 6381
1972 6760
1972 7495
1972 7722
1972 8636
1973 4321
1973 5177
1973 5477
1973 6101
1973 6382
1973 6761
1973 7496
1973 7723
1973 8637
1974 4322
1974 5178
1974 5478
1974 6102
1974 6383
1974 6762
1974 7497
1974 7724
1974 8638
1975 4323
1975 5179
1975 5479
1975 6103
1975 6384
1975 6763
1975 7335
1975 7725
1975 8476
1976 4324
1976 5180
1976 5480
1976 6104
1976 6385
1976 6764
1976 7336
1976 7726
1976 8477
1977 4325
1977 5181
1977 5481
1977 6105
1977 6386
1977 6765
1977 7337
1977 7727
1977 8478
1978 4326
1978 5182
1978 5482
1978 6106
1978 6387
1978 6766
1978 7338
1978 7728
1978 8479
1979 4327
1979 5183
1979 5483
1979 6107
1979 6388
1979 6767
1979 7339
1979 7729
1979 8480
1980 4328
1980 5184
1980 5484
1980 6108
1980 6389
1980 6768
1980 7340
1980 7730
1980 8481
1981 4329
1981 5185
1981 5485
1981 6109
1981 6390
1981 6769
1981 7341
1981 7731
1981 8482
1982 4330
1982 5186
1982 5486
1982 6110
1982 6391
1982 6770
1982 7342
1982 7732
1982 8483
1983 4331
1983 5187
1983 5487
1983 6111
1983 6392
1983 6771
1983 7343
1983 7733
1983 8484
1984 4332
1984 5188
1984 5488
1984 6112
1984 6393
1984 6772
1984 7344
1984 7734
1984 8485
1985 4333
1985 5189
1985 5489
1985 6113
1985 6394
1985 6773
1985 7345
1985 7735
1985 8486
1986 4334
1986 5190
1986 5490
1986 6114
1986 6395
1986 6774
1986 7346
1986 7736
1986 8487
1987 4335
1987 5191
1987 5491
1987 6115
1987 6396
1987 6775
1987 7347
1987 7737
1987 8488
1988 4336
1988 5192
1988 5492
1988 6116
1988 6397
1988 6776
1988 7348
1988 7738
1988 8489
1989 4337
1989 5193
1989 5493
1989 6117
1989 6398
1989 6777
1989 7349
1989 7739
1989 8490
1990 4338
1990 5194
1990 5494
1990 6118
1990 6399
1990 6778
1990 7350
1990 7740
1990 8491
1991 4339
1991 5195
1991 5495
1991 6119
1991 6400
1991 6779
1991 7351
1991 7741
1991 8492
1992 4340
1992 5196
1992 5496
1992 6120
1992 6401
1992 6780
1992 7352
1992 7742
1992 8493
1993 4341
1993 5197
1993 5497
1993 6121
1993 6402
1993 6781
1993 7353
1993 7743
1993 8494
1994 4342
1994 5198
1994 5498
1994 6122
1994 6403
1994 6782
1994 7354
1994 7744
1994 8495
1995 4343
1995 5199
1995 5499
1995 6123
1995 6404
1995 6783
1995 7355
1995 7745
1995 8496
1996 4344
1996 5200
1996 5500
1996 6124
1996 6405
1996 6784
1996 7356
1996 7746
1996 8497
1997 4345
1997 5201
1997 5501
1997 6125
1997 6406
1997 6785
1997 7357
1997 7747
1997 8498
1998 4346
1998 5202
1998 5502
1998 6126
1998 6407
1998 6786
1998 7358
1998 7748
1998 8499
1999 4347
1999 5203
1999 5503
1999 6127
1999 6408
1999 6787
1999 7359
1999 7749
1999 8500
2000 4348
2000 5204
2000 5504
2000 6128
2000 6409
2000 6788
2000 7360
2000 7750
2000 8501
2001 4349
2001 5205
2001 5505
2001 6129
2001 6410
2001 6789
2001 7361
2001 7751
2001 8502
2002 4350
2002 5206
2002 5506
2002 6130
2002 6411
2002 6790
2002 7362
2002 7752
2002 8503
2003 4351
2003 5207
2003 5507
2003 6131
2003 6412
2003 6791
2003 7363
2003 7753
2003 8504
2004 4352
2004 5208
2004 5508
2004 6132
2004 6413
2004 6792
2004 7364
2004 7754
2004 8505
2005 4353
2005 5209
2005 5509
2005 6133
2005 6414
2005 6793
2005 7365
2005 7755
2005 8506
2006 4354
2006 5210
2006 5510
2006 6134
2006 6415
2006 6794
2006 7366
2006 7756
2006 8507
2007 4355
2007 5211
2007 5511
2007 6135
2007 6416
2007 6795
2007 7367
2007 7757
2007 8508
2008 4356
2008 5212
2008 5512
2008 6136
2008 6417
2008 6796
2008 7368
2008 7758
2008 8509
2009 4357
2009 5213
2009 5513
2009 6137
2009 6418
2009 6797
2009 7369
2009 7759
2009 8510
2010 4358
2010 5214
2010 5514
2010 6138
2010 6419
2010 6798
2010 7370
2010 7760
2010 8511
2011 4359
2011 5215
2011 5515
2011 6139
2011 6420
2011 6799
2011 7371
2011 7761
2011 8512
2012 4360
2012 5053
2012 5516
2012 6140
2012 6421
2012 6800
2012 7372
2012 7762
2012 8513
2013 4361
2013 5054
2013 5517
2013 6141
2013 6422
2013 6801
2013 7373
2013 7763
2013 8514
2014 4362
2014 5055
2014 5518
2014 6142
2014 6423
2014 6802
2014 7374
2014 7764
2014 8515
2015 4363
2015 5056
2015 5519
2015 6143
2015 6424
2015 6803
2015 7375
2015 7765
2015 8516
2016 4364
2016 5057
2016 5520
2016 6144
2016 6425
2016 6804
2016 7376
2016 7766
2016 8517
2017 4365
2017 5058
2017 5521
2017 6145
2017 6426
2017 6805
2017 7377
2017 7767
2017 8518
2018 4366
2018 5059
2018 5522
2018 6146
2018 6427
2018 6806
2018 7378
2018 7768
2018 8519
2019 4367
2019 5060
2019 5523
2019 6147
2019 6428
2019 6807
2019 7379
2019 7769
2019 8520
2020 4368
2020 5061
2020 5524
2020 6148
2020 6429
2020 6808
2020 7380
2020 7770
2020 8521
2021 4369
2021 5062
2021 5525
2021 6149
2021 6430
2021 6809
2021 7381
2021 7771
2021 8522
2022 4370
2022 5063
2022 5526
2022 6150
2022 6431
2022 6810
2022 7382
2022 7772
2022 8523
2023 4371
2023 5064
2023 5527
2023 6151
2023 6432
2023 6811
2023 7383
2023 7773
2023 8524
2024 4372
2024 5065
2024 5528
2024 6152
2024 6433
2024 6812
2024 7384
2024 7774
2024 8525
2025 4373
2025 5066
2025 5529
2025 6153
2025 6434
2025 6813
2025 7385
2025 7775
2025 8526
2026 4374
2026 5067
2026 5530
2026 6154
2026 6435
2026 6814
2026 7386
2026 7776
2026 8527
2027 4375
2027 5068
2027 5531
2027 6155
2027 6436
2027 6815
2027 7387
2027 7777
2027 8528
2028 4376
2028 5069
2028 5532
2028 6156
2028 6437
2028 6816
2028 7388
2028 7778
2028 8529
2029 4377
2029 5070
2029 5533
2029 6157
2029 6438
2029 6817
2029 7389
2029 7779
2029 8530
2030 4378
2030 5071
2030 5534
2030 6158
2030 6439
2030 6818
2030 7390
2030 7780
2030 8531
2031 4379
2031 5072
2031 5535
2031 6159
2031 6440
2031 6819
2031 7391
2031 7781
2031 8532
2032 4380
2032 5073
2032 5536
2032 6160
2032 6441
2032 6820
2032 7392
2032 7782
2032 8533
2033 4381
2033 5074
2033 5537
2033 6161
2033 6442
2033 6821
2033 7393
2033 7783
2033 8534
2034 4382
2034 5075
2034 5538
2034 6162
2034 6443
2034 6822
2034 7394
2034 7784
2034 8535
2035 4383
2035 5076
2035 5539
2035 6163
2035 6444
2035 6823
2035 7395
2035 7785
2035 8536
2036 4384
2036 5077
2036 5540
2036 6164
2036 6445
2036 6824
2036 7396
2036 7786
2036 8537
2037 4385
2037 5078
2037 5541
2037 6165
2037 6446
2037 6825
2037 7397
2037 7787
2037 8538
2038 4386
2038 5079
2038 5379
2038 6166
2038 6447
2038 6826
2038 7398
2038 7788
2038 8539
2039 4387
2039 5080
2039 5380
2039 6167
2039 6448
2039 6827
2039 7399
2039 7789
2039 8540
2040 4388
2040 5081
2040 5381
2040 6168
2040 6449
2040 6828
2040 7400
2040 7790
2040 8541
2041 4389
2041 5082
2041 5382
2041 6169
2041 6450
2041 6829
2041 7401
2041 7791
2041 8542
2042 4390
2042 5083
2042 5383
2042 6170
2042 6451
2042 6830
2042 7402
2042 7792
2042 8543
2043 4391
2043 5084
2043 5384
2043 6171
2043 6452
2043 6831
2043 7403
2043 7793
2043 8544
2044 4392
2044 5085
2044 5385
2044 6172
2044 6453
2044 6832
2044 7404
2044 7794
2044 8545
2045 4393
2045 5086
2045 5386
2045 6173
2045 6454
2045 6833
2045 7405
2045 7795
2045 8546
2046 4394
2046 5087
2046 5387
2046 6174
2046 6455
2046 6834
2046 7406
2046 7796
2046 8547
2047 4395
2047 5088
2047 5388
2047 6175
2047 6456
2047 6835
2047 7407
2047 7797
2047 8548
2048 4396
2048 5089
2048 5389
2048 6176
2048 6457
2048 6836
2048 7408
2048 7798
2048 8549
2049 4397
2049 5090
2049 5390
2049 6177
2049 6458
2049 6837
2049 7409
2049 7799
2049 8550
2050 4398
2050 5091
2050 5391
2050 6178
2050 6459
2050 6838
2050 7410
2050 7800
2050 8551
2051 4399
2051 5092
2051 5392
2051 6179
2051 6460
2051 6839
2051 7411
2051 7801
2051 8552
2052 4400
2052 5093
2052 5393
2052 6180
2052 6461
2052 6840
2052 7412
2052 7802
2052 8553
2053 4238
2053 5094
2053 5394
2053 6181
2053 6462
2053 6841
2053 7413
2053 7803
2053 8554
2054 4239
2054 5095
2054 5395
2054 6182
2054 6463
2054 6842
2054 7414
2054 7804
2054 8555
2055 4240
2055 5096
2055 5396
2055 6183
2055 6464
2055 6843
2055 7415
2055 7805
2055 8556
2056 4241
2056 5097
2056 5397
2056 6184
2056 6465
2056 6844
2056 7416
2056 7806
2056 8557
2057 4242
2057 5098
2057 5398
2057 6185
2057 6466
2057 6845
2057 7417
2057 7807
2057 8558
2058 4243
2058 5099
2058 5399
2058 6186
2058 6467
2058 6683
2058 7418
2058 7808
2058 8559
2059 4244
2059 5100
2059 5400
2059 6187
2059 6468
2059 6684
2059 7419
2059 7809
2059 8560
2060 4245
2060 5101
2060 5401
2060 6188
2060 6469
2060 6685
2060 7420
2060 7810
2060 8561
2061 4246
2061 5102
2061 5402
2061 6189
2061 6470
2061 6686
2061 7421
2061 7811
2061 8562
2062 4247
2062 5103
2062 5403
2062 6190
2062 6471
2062 6687
2062 7422
2062 7812
2062 8563
2063 4248
2063 5104
2063 5404
2063 6191
2063 6472
2063 6688
2063 7423
2063 7813
2063 8564
2064 4249
2064 5105
2064 5405
2064 6192
2064 6473
2064 6689
2064 7424
2064 7814
2064 8565
2065 4250
2065 5106
2065 5406
2065 6193
2065 6474
2065 6690
2065 7425
2065 7815
2065 8566
2066 4251
2066 5107
2066 5407
2066 6031
2066 6475
2066 6691
2066 7426
2066 7816
2066 8567
2067 4252
2067 5108
2067 5408
2067 6032
2067 6476
2067 6692
2067 7427
2067 7817
2067 8568
2068 4253
2068 5109
2068 5409
2068 6033
2068 6477
2068 6693
2068 7428
2068 7818
2068 8569
2069 4254
2069 5110
2069 5410
2069 6034
2069 6478
2069 6694
2069 7429
2069 7819
2069 8570
2070 4255
2070 5111
2070 5411
2070 6035
2070 6479
2070 6695
2070 7430
2070 7820
2070 8571
2071 4256
2071 5112
2071 5412
2071 6036
2071 6480
2071 6696
2071 7431
2071 7821
2071 8572
2072 4257
2072 5113
2072 5413
2072 6037
2072 6481
2072 6697
2072 7432
2072 7822
2072 8573
2073 4258
2073 5114
2073 5414
2073 6038
2073 6482
2073 6698
2073 7433
2073 7823
2073 8574
2074 4259
2074 5115
2074 5415
2074 6039
2074 6483
2074 6699
2074 7434
2074 7661
2074 8575
2075 4260
2075 5116
2075 5416
2075 6040
2075 6484
2075 6700
2075 7435
2075 7662
2075 8576
2076 4261
2076 5117
2076 5417
2076 6041
2076 6485
2076 6701
2076 7436
2076 7663
2076 8577
2077 4262
2077 5118
2077 5418
2077 6042
2077 6486
2077 6702
2077 7437
2077 7664
2077 8578
2078 4263
2078 5119
2078 5419
2078 6043
2078 6487
2078 6703
2078 7438
2078 7665
2078 8579
2079 4264
2079 5120
2079 5420
2079 6044
2079 6488
2079 6704
2079 7439
2079 7666
2079 8580
2080 4265
2080 5121
2080 5421
2080 6045
2080 6489
2080 6705
2080 7440
2080 7667
2080 8581
2081 4266
2081 5122
2081 5422
2081 6046
2081 6490
2081 6706
2081 7441
2081 7668
2081 8582
2082 4267
2082 5123
2082 5423
2082 6047
2082 6491
2082 6707
2082 7442
2082 7669
2082 8583
2083 4268
2083 5124
2083 5424
2083 6048
2083 6492
2083 6708
2083 7443
2083 7670
2083 8584
2084 4269
2084 5125
2084 5425
2084 6049
2084 6493
2084 6709
2084 7444
2084 7671
2084 8585
2085 4270
2085 5126
2085 5426
2085 6050
2085 6494
2085 6710
2085 7445
2085 7672
2085 8586
2086 4271
2086 5127
2086 5427
2086 6051
2086 6495
2086 6711
2086 7446
2086 7673
2086 8587
2087 4272
2087 5128
2087 5428
2087 6052
2087 6496
2087 6712
2087 7447
2087 7674
2087 8588
2088 4273
2088 5129
2088 5429
2088 6053
2088 6497
2088 6713
2088 7448
2088 7675
2088 8589
2089 4274
2089 5130
2089 5430
2089 6054
2089 6498
2089 6714
2089 7449
2089 7676
2089 8590
2090 4275
2090 5131
2090 5431
2090 6055
2090 6499
2090 6715
2090 7450
2090 7677
2090 8591
2091 4276
2091 5132
2091 5432
2091 6056
2091 6500
2091 6716
2091 7451
2091 7678
2091 8592
2092 4277
2092 5133
2092 5433
2092 6057
2092 6501
2092 6717
2092 7452
2092 7679
2092 8593
2093 4278
2093 5134
2093 5434
2093 6058
2093 6502
2093 6718
2093 7453
2093 7680
2093 8594
2094 4279
2094 5135
2094 5435
2094 6059
2094 6503
2094 6719
2094 7454
2094 7681
2094 8595
2095 4280
2095 5136
2095 5436
2095 6060
2095 6504
2095 6720
2095 7455
2095 7682
2095 8596
2096 4281
2096 5137
2096 5437
2096 6061
2096 6505
2096 6721
2096 7456
2096 7683
2096 8597
2097 4282
2097 5138
2097 5438
2097 6062
2097 6506
2097 6722
2097 7457
2097 7684
2097 8598
2098 4283
2098 5139
2098 5439
2098 6063
2098 6507
2098 6723
2098 7458
2098 7685
2098 8599
2099 4284
2099 5140
2099 5440
2099 6064
2099 6508
2099 6724
2099 7459
2099 7686
2099 8600
2100 4285
2100 5141
2100 5441
2100 6065
2100 6509
2100 6725
2100 7460
2100 7687
2100 8601
2101 4286
2101 5142
2101 5442
2101 6066
2101 6510
2101 6726
2101 7461
2101 7688
2101 8602
2102 4287
2102 5143
2102 5443
2102 6067
2102 6511
2102 6727
2102 7462
2102 7689
2102 8603
2103 4288
2103 5144
2103 5444
2103 6068
2103 6512
2103 6728
2103 7463
2103 7690
2103 8604
2104 4289
2104 5145
2104 5445
2104 6069
2104 6513
2104 6729
2104 7464
2104 7691
2104 8605
2105 4290
2105 5146
2105 5446
2105 6070
2105 6514
2105 6730
2105 7465
2105 7692
2105 8606
2106 4291
2106 5147
2106 5447
2106 6071
2106 6515
2106 6731
2106 7466
2106 7693
2106 8607
2107 4292
2107 5148
2107 5448
2107 6072
2107 6516
2107 6732
2107 7467
2107 7694
2107 8608
2108 4293
2108 5149
2108 5449
2108 6073
2108 6517
2108 6733
2108 7468
2108 7695
2108 8609
2109 4294
2109 5150
2109 5450
2109 6074
2109 6518
2109 6734
2109 7469
2109 7696
2109 8610
2110 4295
2110 5151
2110 5451
2110 6075
2110 6519
2110 6735
2110 7470
2110 7697
2110 8611
2111 4296
2111 5152
2111 5452
2111 6076
2111 6357
2111 6736
2111 7471
2111 7698
2111 8612
2112 4297
2112 5153
2112 5453
2112 6077
2112 6358
2112 6737
2112 7472
2112 7699
2112 8613
2113 4298
2113 5154
2113 5454
2113 6078
2113 6359
2113 6738
2113 7473
2113 7700
2113 8614
2114 4299
2114 5155
2114 5455
2114 6079
2114 6360
2114 6739
2114 7474
2114 7701
2114 8615
2115 4300
2115 5156
2115 5456
2115 6080
2115 6361
2115 6740
2115 7475
2115 7702
2115 8616
2116 4301
2116 5157
2116 5457
2116 6081
2116 6362
2116 6741
2116 7476
2116 7703
2116 8617
2117 4302
2117 5158
2117 5458
2117 6082
2117 6363
2117 6742
2117 7477
2117 7704
2117 8618
2118 4303
2118 5159
2118 5459
2118 6083
2118 6364
2118 6743
2118 7478
2118 7705
2118 8619
2119 4416
2119 5307
2119 5553
2119 6332
2119 6670
2119 6971
2119 7590
2119 7975
2119 8731
2120 4417
2120 5308
2120 5554
2120 6333
2120 6671
2120 6972
2120 7591
2120 7976
2120 8732
2121 4418
2121 5309
2121 5555
2121 6334
2121 6672
2121 6973
2121 7592
2121 7977
2121 8733
2122 4419
2122 5310
2122 5556
2122 6335
2122 6673
2122 6974
2122 7593
2122 7978
2122 8734
2123 4420
2123 5311
2123 5557
2123 6336
2123 6674
2123 6975
2123 7594
2123 7979
2123 8735
2124 4421
2124 5312
2124 5558
2124 6337
2124 6675
2124 6976
2124 7595
2124 7980
2124 8736
2125 4422
2125 5313
2125 5559
2125 6338
2125 6676
2125 6977
2125 7596
2125 7981
2125 8737
2126 4423
2126 5314
2126 5560
2126 6339
2126 6677
2126 6978
2126 7597
2126 7982
2126 8738
2127 4424
2127 5315
2127 5561
2127 6340
2127 6678
2127 6979
2127 7598
2127 7983
2127 8739
2128 4425
2128 5316
2128 5562
2128 6341
2128 6679
2128 6980
2128 7599
2128 7984
2128 8740
2129 4426
2129 5317
2129 5563
2129 6342
2129 6680
2129 6981
2129 7600
2129 7985
2129 8741
2130 4427
2130 5318
2130 5564
2130 6343
2130 6681
2130 6982
2130 7601
2130 7986
2130 8742
2131 4428
2131 5319
2131 5565
2131 6344
2131 6682
2131 6983
2131 7602
2131 7824
2131 8743
2132 4429
2132 5320
2132 5566
2132 6345
2132 6520
2132 6984
2132 7603
2132 7825
2132 8744
2133 4430
2133 5321
2133 5567
2133 6346
2133 6521
2133 6985
2133 7604
2133 7826
2133 8745
2134 4431
2134 5322
2134 5568
2134 6347
2134 6522
2134 6986
2134 7605
2134 7827
2134 8746
2135 4432
2135 5323
2135 5569
2135 6348
2135 6523
2135 6987
2135 7606
2135 7828
2135 8747
2136 4433
2136 5324
2136 5570
2136 6349
2136 6524
2136 6988
2136 7607
2136 7829
2136 8748
2137 4434
2137 5325
2137 5571
2137 6350
2137 6525
2137 6989
2137 7608
2137 7830
2137 8749
2138 4435
2138 5326
2138 5572
2138 6351
2138 6526
2138 6990
2138 7609
2138 7831
2138 8750
2139 4436
2139 5327
2139 5573
2139 6352
2139 6527
2139 6991
2139 7610
2139 7832
2139 8751
2140 4437
2140 5328
2140 5574
2140 6353
2140 6528
2140 6992
2140 7611
2140 7833
2140 8752
2141 4438
2141 5329
2141 5575
2141 6354
2141 6529
2141 6993
2141 7612
2141 7834
2141 8753
2142 4439
2142 5330
2142 5576
2142 6355
2142 6530
2142 6994
2142 7613
2142 7835
2142 8754
2143 4440
2143 5331
2143 5577
2143 6356
2143 6531
2143 6995
2143 7614
2143 7836
2143 8755
2144 4441
2144 5332
2144 5578
2144 6194
2144 6532
2144 6996
2144 7615
2144 7837
2144 8756
2145 4442
2145 5333
2145 5579
2145 6195
2145 6533
2145 6997
2145 7616
2145 7838
2145 8757
2146 4443
2146 5334
2146 5580
2146 6196
2146 6534
2146 6998
2146 7617
2146 7839
2146 8758
2147 4444
2147 5335
2147 5581
2147 6197
2147 6535
2147 6999
2147 7618
2147 7840
2147 8759
2148 4445
2148 5336
2148 5582
2148 6198
2148 6536
2148 7000
2148 7619
2148 7841
2148 8760
2149 4446
2149 5337
2149 5583
2149 6199
2149 6537
2149 7001
2149 7620
2149 7842
2149 8761
2150 4447
2150 5338
2150 5584
2150 6200
2150 6538
2150 7002
2150 7621
2150 7843
2150 8762
2151 4448
2151 5339
2151 5585
2151 6201
2151 6539
2151 7003
2151 7622
2151 7844
2151 8763
2152 4449
2152 5340
2152 5586
2152 6202
2152 6540
2152 7004
2152 7623
2152 7845
2152 8764
2153 4450
2153 5341
2153 5587
2153 6203
2153 6541
2153 7005
2153 7624
2153 7846
2153 8765
2154 4451
2154 5342
2154 5588
2154 6204
2154 6542
2154 7006
2154 7625
2154 7847
2154 8766
2155 4452
2155 5343
2155 5589
2155 6205
2155 6543
2155 7007
2155 7626
2155 7848
2155 8767
2156 4453
2156 5344
2156 5590
2156 6206
2156 6544
2156 7008
2156 7627
2156 7849
2156 8768
2157 4454
2157 5345
2157 5591
2157 6207
2157 6545
2157 6846
2157 7628
2157 7850
2157 8769
2158 4455
2158 5346
2158 5592
2158 6208
2158 6546
2158 6847
2158 7629
2158 7851
2158 8770
2159 4456
2159 5347
2159 5593
2159 6209
2159 6547
2159 6848
2159 7630
2159 7852
2159 8771
2160 4457
2160 5348
2160 5594
2160 6210
2160 6548
2160 6849
2160 7631
2160 7853
2160 8772
2161 4458
2161 5349
2161 5595
2161 6211
2161 6549
2161 6850
2161 7632
2161 7854
2161 8773
2162 4459
2162 5350
2162 5596
2162 6212
2162 6550
2162 6851
2162 7633
2162 7855
2162 8774
2163 4460
2163 5351
2163 5597
2163 6213
2163 6551
2163 6852
2163 7634
2163 7856
2163 8775
2164 4461
2164 5352
2164 5598
2164 6214
2164 6552
2164 6853
2164 7635
2164 7857
2164 8776
2165 4462
2165 5353
2165 5599
2165 6215
2165 6553
2165 6854
2165 7636
2165 7858
2165 8777
2166 4463
2166 5354
2166 5600
2166 6216
2166 6554
2166 6855
2166 7637
2166 7859
2166 8778
2167 4464
2167 5355
2167 5601
2167 6217
2167 6555
2167 6856
2167 7638
2167 7860
2167 8779
2168 4465
2168 5356
2168 5602
2168 6218
2168 6556
2168 6857
2168 7639
2168 7861
2168 8780
2169 4466
2169 5357
2169 5603
2169 6219
2169 6557
2169 6858
2169 7640
2169 7862
2169 8781
2170 4467
2170 5358
2170 5604
2170 6220
2170 6558
2170 6859
2170 7641
2170 7863
2170 8782
2171 4468
2171 5359
2171 5605
2171 6221
2171 6559
2171 6860
2171 7642
2171 7864
2171 8783
2172 4469
2172 5360
2172 5606
2172 6222
2172 6560
2172 6861
2172 7643
2172 7865
2172 8784
2173 4470
2173 5361
2173 5607
2173 6223
2173 6561
2173 6862
2173 7644
2173 7866
2173 8785
2174 4471
2174 5362
2174 5608
2174 6224
2174 6562
2174 6863
2174 7645
2174 7867
2174 8786
2175 4472
2175 5363
2175 5609
2175 6225
2175 6563
2175 6864
2175 7646
2175 7868
2175 8787
2176 4473
2176 5364
2176 5610
2176 6226
2176 6564
2176 6865
2176 7647
2176 7869
2176 8788
2177 4474
2177 5365
2177 5611
2177 6227
2177 6565
2177 6866
2177 7648
2177 7870
2177 8789
2178 4475
2178 5366
2178 5612
2178 6228
2178 6566
2178 6867
2178 7649
2178 7871
2178 8790
2179 4476
2179 5367
2179 5613
2179 6229
2179 6567
2179 6868
2179 7650
2179 7872
2179 8791
2180 4477
2180 5368
2180 5614
2180 6230
2180 6568
2180 6869
2180 7651
2180 7873
2180 8792
2181 4478
2181 5369
2181 5615
2181 6231
2181 6569
2181 6870
2181 7652
2181 7874
2181 8793
2182 4479
2182 5370
2182 5616
2182 6232
2182 6570
2182 6871
2182 7653
2182 7875
2182 8794
2183 4480
2183 5371
2183 5617
2183 6233
2183 6571
2183 6872
2183 7654
2183 7876
2183 8795
2184 4481
2184 5372
2184 5618
2184 6234
2184 6572
2184 6873
2184 7655
2184 7877
2184 8796
2185 4482
2185 5373
2185 5619
2185 6235
2185 6573
2185 6874
2185 7656
2185 7878
2185 8797
2186 4483
2186 5374
2186 5620
2186 6236
2186 6574
2186 6875
2186 7657
2186 7879
2186 8798
2187 4484
2187 5375
2187 5621
2187 6237
2187 6575
2187 6876
2187 7658
2187 7880
2187 8799
2188 4485
2188 5376
2188 5622
2188 6238
2188 6576
2188 6877
2188 7659
2188 7881
2188 8800
2189 4486
2189 5377
2189 5623
2189 6239
2189 6577
2189 6878
2189 7660
2189 7882
2189 8801
2190 4487
2190 5378
2190 5624
2190 6240
2190 6578
2190 6879
2190 7498
2190 7883
2190 8639
2191 4488
2191 5216
2191 5625
2191 6241
2191 6579
2191 6880
2191 7499
2191 7884
2191 8640
2192 4489
2192 5217
2192 5626
2192 6242
2192 6580
2192 6881
2192 7500
2192 7885
2192 8641
2193 4490
2193 5218
2193 5627
2193 6243
2193 6581
2193 6882
2193 7501
2193 7886
2193 8642
2194 4491
2194 5219
2194 5628
2194 6244
2194 6582
2194 6883
2194 7502
2194 7887
2194 8643
2195 4492
2195 5220
2195 5629
2195 6245
2195 6583
2195 6884
2195 7503
2195 7888
2195 8644
2196 4493
2196 5221
2196 5630
2196 6246
2196 6584
2196 6885
2196 7504
2196 7889
2196 8645
2197 4494
2197 5222
2197 5631
2197 6247
2197 6585
2197 6886
2197 7505
2197 7890
2197 8646
2198 4495
2198 5223
2198 5632
2198 6248
2198 6586
2198 6887
2198 7506
2198 7891
2198 8647
2199 4496
2199 5224
2199 5633
2199 6249
2199 6587
2199 6888
2199 7507
2199 7892
2199 8648
2200 4497
2200 5225
2200 5634
2200 6250
2200 6588
2200 6889
2200 7508
2200 7893
2200 8649
2201 4498
2201 5226
2201 5635
2201 6251
2201 6589
2201 6890
2201 7509
2201 7894
2201 8650
2202 4499
2202 5227
2202 5636
2202 6252
2202 6590
2202 6891
2202 7510
2202 7895
2202 8651
2203 4500
2203 5228
2203 5637
2203 6253
2203 6591
2203 6892
2203 7511
2203 7896
2203 8652
2204 4501
2204 5229
2204 5638
2204 6254
2204 6592
2204 6893
2204 7512
2204 7897
2204 8653
2205 4502
2205 5230
2205 5639
2205 6255
2205 6593
2205 6894
2205 7513
2205 7898
2205 8654
2206 4503
2206 5231
2206 5640
2206 6256
2206 6594
2206 6895
2206 7514
2206 7899
2206 8655
2207 4504
2207 5232
2207 5641
2207 6257
2207 6595
2207 6896
2207 7515
2207 7900
2207 8656
2208 4505
2208 5233
2208 5642
2208 6258
2208 6596
2208 6897
2208 7516
2208 7901
2208 8657
2209 4506
2209 5234
2209 5643
2209 6259
2209 6597
2209 6898
2209 7517
2209 7902
2209 8658
2210 4507
2210 5235
2210 5644
2210 6260
2210 6598
2210 6899
2210 7518
2210 7903
2210 8659
2211 4508
2211 5236
2211 5645
2211 6261
2211 6599
2211 6900
2211 7519
2211 7904
2211 8660
2212 4509
2212 5237
2212 5646
2212 6262
2212 6600
2212 6901
2212 7520
2212 7905
2212 8661
2213 4510
2213 5238
2213 5647
2213 6263
2213 6601
2213 6902
2213 7521
2213 7906
2213 8662
2214 4511
2214 5239
2214 5648
2214 6264
2214 6602
2214 6903
2214 7522
2214 7907
2214 8663
2215 4512
2215 5240
2215 5649
2215 6265
2215 6603
2215 6904
2215 7523
2215 7908
2215 8664
2216 4513
2216 5241
2216 5650
2216 6266
2216 6604
2216 6905
2216 7524
2216 7909
2216 8665
2217 4514
2217 5242
2217 5651
2217 6267
2217 6605
2217 6906
2217 7525
2217 7910
2217 8666
2218 4515
2218 5243
2218 5652
2218 6268
2218 6606
2218 6907
2218 7526
2218 7911
2218 8667
2219 4516
2219 5244
2219 5653
2219 6269
2219 6607
2219 6908
2219 7527
2219 7912
2219 8668
2220 4517
2220 5245
2220 5654
2220 6270
2220 6608
2220 6909
2220 7528
2220 7913
2220 8669
2221 4518
2221 5246
2221 5655
2221 6271
2221 6609
2221 6910
2221 7529
2221 7914
2221 8670
2222 4519
2222 5247
2222 5656
2222 6272
2222 6610
2222 6911
2222 7530
2222 7915
2222 8671
2223 4520
2223 5248
2223 5657
2223 6273
2223 6611
2223 6912
2223 7531
2223 7916
2223 8672
2224 4521
2224 5249
2224 5658
2224 6274
2224 6612
2224 6913
2224 7532
2224 7917
2224 8673
2225 4522
2225 5250
2225 5659
2225 6275
2225 6613
2225 6914
2225 7533
2225 7918
2225 8674
2226 4523
2226 5251
2226 5660
2226 6276
2226 6614
2226 6915
2226 7534
2226 7919
2226 8675
2227 4524
2227 5252
2227 5661
2227 6277
2227 6615
2227 6916
2227 7535
2227 7920
2227 8676
2228 4525
2228 5253
2228 5662
2228 6278
2228 6616
2228 6917
2228 7536
2228 7921
2228 8677
2229 4526
2229 5254
2229 5663
2229 6279
2229 6617
2229 6918
2229 7537
2229 7922
2229 8678
2230 4527
2230 5255
2230 5664
2230 6280
2230 6618
2230 6919
2230 7538
2230 7923
2230 8679
2231 4528
2231 5256
2231 5665
2231 6281
2231 6619
2231 6920
2231 7539
2231 7924
2231 8680
2232 4529
2232 5257
2232 5666
2232 6282
2232 6620
2232 6921
2232 7540
2232 7925
2232 8681
2233 4530
2233 5258
2233 5667
2233 6283
2233 6621
2233 6922
2233 7541
2233 7926
2233 8682
2234 4531
2234 5259
2234 5668
2234 6284
2234 6622
2234 6923
2234 7542
2234 7927
2234 8683
2235 4532
2235 5260
2235 5669
2235 6285
2235 6623
2235 6924
2235 7543
2235 7928
2235 8684
2236 4533
2236 5261
2236 5670
2236 6286
2236 6624
2236 6925
2236 7544
2236 7929
2236 8685
2237 4534
2237 5262
2237 5671
2237 6287
2237 6625
2237 6926
2237 7545
2237 7930
2237 8686
2238 4535
2238 5263
2238 5672
2238 6288
2238 6626
2238 6927
2238 7546
2238 7931
2238 8687
2239 4536
2239 5264
2239 5673
2239 6289
2239 6627
2239 6928
2239 7547
2239 7932
2239 8688
2240 4537
2240 5265
2240 5674
2240 6290
2240 6628
2240 6929
2240 7548
2240 7933
2240 8689
2241 4538
2241 5266
2241 5675
2241 6291
2241 6629
2241 6930
2241 7549
2241 7934
2241 8690
2242 4539
2242 5267
2242 5676
2242 6292
2242 6630
2242 6931
2242 7550
2242 7935
2242 8691
2243 4540
2243 5268
2243 5677
2243 6293
2243 6631
2243 6932
2243 7551
2243 7936
2243 8692
2244 4541
2244 5269
2244 5678
2244 6294
2244 6632
2244 6933
2244 7552
2244 7937
2244 8693
2245 4542
2245 5270
2245 5679
2245 6295
2245 6633
2245 6934
2245 7553
2245 7938
2245 8694
2246 4543
2246 5271
2246 5680
2246 6296
2246 6634
2246 6935
2246 7554
2246 7939
2246 8695
2247 4544
2247 5272
2247 5681
2247 6297
2247 6635
2247 6936
2247 7555
2247 7940
2247 8696
2248 4545
2248 5273
2248 5682
2248 6298
2248 6636
2248 6937
2248 7556
2248 7941
2248 8697
2249 4546
2249 5274
2249 5683
2249 6299
2249 6637
2249 6938
2249 7557
2249 7942
2249 8698
2250 4547
2250 5275
2250 5684
2250 6300
2250 6638
2250 6939
2250 7558
2250 7943
2250 8699
2251 4548
2251 5276
2251 5685
2251 6301
2251 6639
2251 6940
2251 7559
2251 7944
2251 8700
2252 4549
2252 5277
2252 5686
2252 6302
2252 6640
2252 6941
2252 7560
2252 7945
2252 8701
2253 4550
2253 5278
2253 5687
2253 6303
2253 6641
2253 6942
2253 7561
2253 7946
2253 8702
2254 4551
2254 5279
2254 5688
2254 6304
2254 6642
2254 6943
2254 7562
2254 7947
2254 8703
2255 4552
2255 5280
2255 5689
2255 6305
2255 6643
2255 6944
2255 7563
2255 7948
2255 8704
2256 4553
2256 5281
2256 5690
2256 6306
2256 6644
2256 6945
2256 7564
2256 7949
2256 8705
2257 4554
2257 5282
2257 5691
2257 6307
2257 6645
2257 6946
2257 7565
2257 7950
2257 8706
2258 4555
2258 5283
2258 5692
2258 6308
2258 6646
2258 6947
2258 7566
2258 7951
2258 8707
2259 4556
2259 5284
2259 5693
2259 6309
2259 6647
2259 6948
2259 7567
2259 7952
2259 8708
2260 4557
2260 5285
2260 5694
2260 6310
2260 6648
2260 6949
2260 7568
2260 7953
2260 8709
2261 4558
2261 5286
2261 5695
2261 6311
2261 6649
2261 6950
2261 7569
2261 7954
2261 8710
2262 4559
2262 5287
2262 5696
2262 6312
2262 6650
2262 6951
2262 7570
2262 7955
2262 8711
2263 4560
2263 5288
2263 5697
2263 6313
2263 6651
2263 6952
2263 7571
2263 7956
2263 8712
2264 4561
2264 5289
2264 5698
2264 6314
2264 6652
2264 6953
2264 7572
2264 7957
2264 8713
2265 4562
2265 5290
2265 5699
2265 6315
2265 6653
2265 6954
2265 7573
2265 7958
2265 8714
2266 4563
2266 5291
2266 5700
2266 6316
2266 6654
2266 6955
2266 7574
2266 7959
2266 8715
2267 4401
2267 5292
2267 5701
2267 6317
2267 6655
2267 6956
2267 7575
2267 7960
2267 8716
2268 4402
2268 5293
2268 5702
2268 6318
2268 6656
2268 6957
2268 7576
2268 7961
2268 8717
2269 4403
2269 5294
2269 5703
2269 6319
2269 6657
2269 6958
2269 7577
2269 7962
2269 8718
2270 4404
2270 5295
2270 5704
2270 6320
2270 6658
2270 6959
2270 7578
2270 7963
2270 8719
2271 4405
2271 5296
2271 5542
2271 6321
2271 6659
2271 6960
2271 7579
2271 7964
2271 8720
2272 4406
2272 5297
2272 5543
2272 6322
2272 6660
2272 6961
2272 7580
2272 7965
2272 8721
2273 4407
2273 5298
2273 5544
2273 6323
2273 6661
2273 6962
2273 7581
2273 7966
2273 8722
2274 4408
2274 5299
2274 5545
2274 6324
2274 6662
2274 6963
2274 7582
2274 7967
2274 8723
2275 4409
2275 5300
2275 5546
2275 6325
2275 6663
2275 6964
2275 7583
2275 7968
2275 8724
2276 4410
2276 5301
2276 5547
2276 6326
2276 6664
2276 6965
2276 7584
2276 7969
2276 8725
2277 4411
2277 5302
2277 5548
2277 6327
2277 6665
2277 6966
2277 7585
2277 7970
2277 8726
2278 4412
2278 5303
2278 5549
2278 6328
2278 6666
2278 6967
2278 7586
2278 7971
2278 8727
2279 4413
2279 5304
2279 5550
2279 6329
2279 6667
2279 6968
2279 7587
2279 7972
2279 8728
2280 4414
2280 5305
2280 5551
2280 6330
2280 6668
2280 6969
2280 7588
2280 7973
2280 8729
2281 4415
2281 5306
2281 5552
2281 6331
2281 6669
2281 6970
2281 7589
2281 7974
2281 8730
2282 4723
2282 5496
2282 5789
2282 6418
2282 6806
2282 7030
2282 7756
2282 8088
2283 4724
2283 5497
2283 5790
2283 6419
2283 6807
2283 7031
2283 7757
2283 8089
2284 4725
2284 5498
2284 5791
2284 6420
2284 6808
2284 7032
2284 7758
2284 8090
2285 4726
2285 5499
2285 5792
2285 6421
2285 6809
2285 7033
2285 7759
2285 8091
2286 4564
2286 5500
2286 5793
2286 6422
2286 6810
2286 7034
2286 7760
2286 8092
2287 4565
2287 5501
2287 5794
2287 6423
2287 6811
2287 7035
2287 7761
2287 8093
2288 4566
2288 5502
2288 5795
2288 6424
2288 6812
2288 7036
2288 7762
2288 8094
2289 4567
2289 5503
2289 5796
2289 6425
2289 6813
2289 7037
2289 7763
2289 8095
2290 4568
2290 5504
2290 5797
2290 6426
2290 6814
2290 7038
2290 7764
2290 8096
2291 4569
2291 5505
2291 5798
2291 6427
2291 6815
2291 7039
2291 7765
2291 8097
2292 4570
2292 5506
2292 5799
2292 6428
2292 6816
2292 7040
2292 7766
2292 8098
2293 4571
2293 5507
2293 5800
2293 6429
2293 6817
2293 7041
2293 7767
2293 8099
2294 4572
2294 5508
2294 5801
2294 6430
2294 6818
2294 7042
2294 7768
2294 8100
2295 4573
2295 5509
2295 5802
2295 6431
2295 6819
2295 7043
2295 7769
2295 8101
2296 4574
2296 5510
2296 5803
2296 6432
2296 6820
2296 7044
2296 7770
2296 8102
2297 4575
2297 5511
2297 5804
2297 6433
2297 6821
2297 7045
2297 7771
2297 8103
2298 4576
2298 5512
2298 5805
2298 6434
2298 6822
2298 7046
2298 7772
2298 8104
2299 4577
2299 5513
2299 5806
2299 6435
2299 6823
2299 7047
2299 7773
2299 8105
2300 4578
2300 5514
2300 5807
2300 6436
2300 6824
2300 7048
2300 7774
2300 8106
2301 4579
2301 5515
2301 5808
2301 6437
2301 6825
2301 7049
2301 7775
2301 8107
2302 4580
2302 5516
2302 5809
2302 6438
2302 6826
2302 7050
2302 7776
2302 8108
2303 4581
2303 5517
2303 5810
2303 6439
2303 6827
2303 7051
2303 7777
2303 8109
2304 4582
2304 5518
2304 5811
2304 6440
2304 6828
2304 7052
2304 7778
2304 8110
2305 4583
2305 5519
2305 5812
2305 6441
2305 6829
2305 7053
2305 7779
2305 8111
2306 4584
2306 5520
2306 5813
2306 6442
2306 6830
2306 7054
2306 7780
2306 8112
2307 4585
2307 5521
2307 5814
2307 6443
2307 6831
2307 7055
2307 7781
2307 8113
2308 4586
2308 5522
2308 5815
2308 6444
2308 6832
2308 7056
2308 7782
2308 8114
2309 4587
2309 5523
2309 5816
2309 6445
2309 6833
2309 7057
2309 7783
2309 8115
2310 4588
2310 5524
2310 5817
2310 6446
2310 6834
2310 7058
2310 7784
2310 8116
2311 4589
2311 5525
2311 5818
2311 6447
2311 6835
2311 7059
2311 7785
2311 8117
2312 4590
2312 5526
2312 5819
2312 6448
2312 6836
2312 7060
2312 7786
2312 8118
2313 4591
2313 5527
2313 5820
2313 6449
2313 6837
2313 7061
2313 7787
2313 8119
2314 4592
2314 5528
2314 5821
2314 6450
2314 6838
2314 7062
2314 7788
2314 8120
2315 4593
2315 5529
2315 5822
2315 6451
2315 6839
2315 7063
2315 7789
2315 8121
2316 4594
2316 5530
2316 5823
2316 6452
2316 6840
2316 7064
2316 7790
2316 8122
2317 4595
2317 5531
2317 5824
2317 6453
2317 6841
2317 7065
2317 7791
2317 8123
2318 4596
2318 5532
2318 5825
2318 6454
2318 6842
2318 7066
2318 7792
2318 8124
2319 4597
2319 5533
2319 5826
2319 6455
2319 6843
2319 7067
2319 7793
2319 8125
2320 4598
2320 5534
2320 5827
2320 6456
2320 6844
2320 7068
2320 7794
2320 8126
2321 4599
2321 5535
2321 5828
2321 6457
2321 6845
2321 7069
2321 7795
2321 8127
2322 4600
2322 5536
2322 5829
2322 6458
2322 6683
2322 7070
2322 7796
2322 8128
2323 4601
2323 5537
2323 5830
2323 6459
2323 6684
2323 7071
2323 7797
2323 8129
2324 4602
2324 5538
2324 5831
2324 6460
2324 6685
2324 7072
2324 7798
2324 8130
2325 4603
2325 5539
2325 5832
2325 6461
2325 6686
2325 7073
2325 7799
2325 8131
2326 4604
2326 5540
2326 5833
2326 6462
2326 6687
2326 7074
2326 7800
2326 8132
2327 4605
2327 5541
2327 5834
2327 6463
2327 6688
2327 7075
2327 7801
2327 8133
2328 4606
2328 5379
2328 5835
2328 6464
2328 6689
2328 7076
2328 7802
2328 8134
2329 4607
2329 5380
2329 5836
2329 6465
2329 6690
2329 7077
2329 7803
2329 8135
2330 4608
2330 5381
2330 5837
2330 6466
2330 6691
2330 7078
2330 7804
2330 8136
2331 4609
2331 5382
2331 5838
2331 6467
2331 6692
2331 7079
2331 7805
2331 8137
2332 4610
2332 5383
2332 5839
2332 6468
2332 6693
2332 7080
2332 7806
2332 8138
2333 4611
2333 5384
2333 5840
2333 6469
2333 6694
2333 7081
2333 7807
2333 8139
2334 4612
2334 5385
2334 5841
2334 6470
2334 6695
2334 7082
2334 7808
2334 8140
2335 4613
2335 5386
2335 5842
2335 6471
2335 6696
2335 7083
2335 7809
2335 8141
2336 4614
2336 5387
2336 5843
2336 6472
2336 6697
2336 7084
2336 7810
2336 8142
2337 4615
2337 5388
2337 5844
2337 6473
2337 6698
2337 7085
2337 7811
2337 8143
2338 4616
2338 5389
2338 5845
2338 6474
2338 6699
2338 7086
2338 7812
2338 8144
2339 4617
2339 5390
2339 5846
2339 6475
2339 6700
2339 7087
2339 7813
2339 8145
2340 4618
2340 5391
2340 5847
2340 6476
2340 6701
2340 7088
2340 7814
2340 8146
2341 4619
2341 5392
2341 5848
2341 6477
2341 6702
2341 7089
2341 7815
2341 8147
2342 4620
2342 5393
2342 5849
2342 6478
2342 6703
2342 7090
2342 7816
2342 8148
2343 4621
2343 5394
2343 5850
2343 6479
2343 6704
2343 7091
2343 7817
2343 8149
2344 4622
2344 5395
2344 5851
2344 6480
2344 6705
2344 7092
2344 7818
2344 7987
2345 4623
2345 5396
2345 5852
2345 6481
2345 6706
2345 7093
2345 7819
2345 7988
2346 4624
2346 5397
2346 5853
2346 6482
2346 6707
2346 7094
2346 7820
2346 7989
2347 4625
2347 5398
2347 5854
2347 6483
2347 6708
2347 7095
2347 7821
2347 7990
2348 4626
2348 5399
2348 5855
2348 6484
2348 6709
2348 7096
2348 7822
2348 7991
2349 4627
2349 5400
2349 5856
2349 6485
2349 6710
2349 7097
2349 7823
2349 7992
2350 4628
2350 5401
2350 5857
2350 6486
2350 6711
2350 7098
2350 7661
2350 7993
2351 4629
2351 5402
2351 5858
2351 6487
2351 6712
2351 7099
2351 7662
2351 7994
2352 4630
2352 5403
2352 5859
2352 6488
2352 6713
2352 7100
2352 7663
2352 7995
2353 4631
2353 5404
2353 5860
2353 6489
2353 6714
2353 7101
2353 7664
2353 7996
2354 4632
2354 5405
2354 5861
2354 6490
2354 6715
2354 7102
2354 7665
2354 7997
2355 4633
2355 5406
2355 5862
2355 6491
2355 6716
2355 7103
2355 7666
2355 7998
2356 4634
2356 5407
2356 5863
2356 6492
2356 6717
2356 7104
2356 7667
2356 7999
2357 4635
2357 5408
2357 5864
2357 6493
2357 6718
2357 7105
2357 7668
2357 8000
2358 4636
2358 5409
2358 5865
2358 6494
2358 6719
2358 7106
2358 7669
2358 8001
2359 4637
2359 5410
2359 5866
2359 6495
2359 6720
2359 7107
2359 7670
2359 8002
2360 4638
2360 5411
2360 5867
2360 6496
2360 6721
2360 7108
2360 7671
2360 8003
2361 4639
2361 5412
2361 5705
2361 6497
2361 6722
2361 7109
2361 7672
2361 8004
2362 4640
2362 5413
2362 5706
2362 6498
2362 6723
2362 7110
2362 7673
2362 8005
2363 4641
2363 5414
2363 5707
2363 6499
2363 6724
2363 7111
2363 7674
2363 8006
2364 4642
2364 5415
2364 5708
2364 6500
2364 6725
2364 7112
2364 7675
2364 8007
2365 4643
2365 5416
2365 5709
2365 6501
2365 6726
2365 7113
2365 7676
2365 8008
2366 4644
2366 5417
2366 5710
2366 6502
2366 6727
2366 7114
2366 7677
2366 8009
2367 4645
2367 5418
2367 5711
2367 6503
2367 6728
2367 7115
2367 7678
2367 8010
2368 4646
2368 5419
2368 5712
2368 6504
2368 6729
2368 7116
2368 7679
2368 8011
2369 4647
2369 5420
2369 5713
2369 6505
2369 6730
2369 7117
2369 7680
2369 8012
2370 4648
2370 5421
2370 5714
2370 6506
2370 6731
2370 7118
2370 7681
2370 8013
2371 4649
2371 5422
2371 5715
2371 6507
2371 6732
2371 7119
2371 7682
2371 8014
2372 4650
2372 5423
2372 5716
2372 6508
2372 6733
2372 7120
2372 7683
2372 8015
2373 4651
2373 5424
2373 5717
2373 6509
2373 6734
2373 7121
2373 7684
2373 8016
2374 4652
2374 5425
2374 5718
2374 6510
2374 6735
2374 7122
2374 7685
2374 8017
2375 4653
2375 5426
2375 5719
2375 6511
2375 6736
2375 7123
2375 7686
2375 8018
2376 4654
2376 5427
2376 5720
2376 6512
2376 6737
2376 7124
2376 7687
2376 8019
2377 4655
2377 5428
2377 5721
2377 6513
2377 6738
2377 7125
2377 7688
2377 8020
2378 4656
2378 5429
2378 5722
2378 6514
2378 6739
2378 7126
2378 7689
2378 8021
2379 4657
2379 5430
2379 5723
2379 6515
2379 6740
2379 7127
2379 7690
2379 8022
2380 4658
2380 5431
2380 5724
2380 6516
2380 6741
2380 7128
2380 7691
2380 8023
2381 4659
2381 5432
2381 5725
2381 6517
2381 6742
2381 7129
2381 7692
2381 8024
2382 4660
2382 5433
2382 5726
2382 6518
2382 6743
2382 7130
2382 7693
2382 8025
2383 4661
2383 5434
2383 5727
2383 6519
2383 6744
2383 7131
2383 7694
2383 8026
2384 4662
2384 5435
2384 5728
2384 6357
2384 6745
2384 7132
2384 7695
2384 8027
2385 4663
2385 5436
2385 5729
2385 6358
2385 6746
2385 7133
2385 7696
2385 8028
2386 4664
2386 5437
2386 5730
2386 6359
2386 6747
2386 7134
2386 7697
2386 8029
2387 4665
2387 5438
2387 5731
2387 6360
2387 6748
2387 7135
2387 7698
2387 8030
2388 4666
2388 5439
2388 5732
2388 6361
2388 6749
2388 7136
2388 7699
2388 8031
2389 4667
2389 5440
2389 5733
2389 6362
2389 6750
2389 7137
2389 7700
2389 8032
2390 4668
2390 5441
2390 5734
2390 6363
2390 6751
2390 7138
2390 7701
2390 8033
2391 4669
2391 5442
2391 5735
2391 6364
2391 6752
2391 7139
2391 7702
2391 8034
2392 4670
2392 5443
2392 5736
2392 6365
2392 6753
2392 7140
2392 7703
2392 8035
2393 4671
2393 5444
2393 5737
2393 6366
2393 6754
2393 7141
2393 7704
2393 8036
2394 4672
2394 5445
2394 5738
2394 6367
2394 6755
2394 7142
2394 7705
2394 8037
2395 4673
2395 5446
2395 5739
2395 6368
2395 6756
2395 7143
2395 7706
2395 8038
2396 4674
2396 5447
2396 5740
2396 6369
2396 6757
2396 7144
2396 7707
2396 8039
2397 4675
2397 5448
2397 5741
2397 6370
2397 6758
2397 7145
2397 7708
2397 8040
2398 4676
2398 5449
2398 5742
2398 6371
2398 6759
2398 7146
2398 7709
2398 8041
2399 4677
2399 5450
2399 5743
2399 6372
2399 6760
2399 7147
2399 7710
2399 8042
2400 4678
2400 5451
2400 5744
2400 6373
2400 6761
2400 7148
2400 7711
2400 8043
2401 4679
2401 5452
2401 5745
2401 6374
2401 6762
2401 7149
2401 7712
2401 8044
2402 4680
2402 5453
2402 5746
2402 6375
2402 6763
2402 7150
2402 7713
2402 8045
2403 4681
2403 5454
2403 5747
2403 6376
2403 6764
2403 7151
2403 7714
2403 8046
2404 4682
2404 5455
2404 5748
2404 6377
2404 6765
2404 7152
2404 7715
2404 8047
2405 4683
2405 5456
2405 5749
2405 6378
2405 6766
2405 7153
2405 7716
2405 8048
2406 4684
2406 5457
2406 5750
2406 6379
2406 6767
2406 7154
2406 7717
2406 8049
2407 4685
2407 5458
2407 5751
2407 6380
2407 6768
2407 7155
2407 7718
2407 8050
2408 4686
2408 5459
2408 5752
2408 6381
2408 6769
2408 7156
2408 7719
2408 8051
2409 4687
2409 5460
2409 5753
2409 6382
2409 6770
2409 7157
2409 7720
2409 8052
2410 4688
2410 5461
2410 5754
2410 6383
2410 6771
2410 7158
2410 7721
2410 8053
2411 4689
2411 5462
2411 5755
2411 6384
2411 6772
2411 7159
2411 7722
2411 8054
2412 4690
2412 5463
2412 5756
2412 6385
2412 6773
2412 7160
2412 7723
2412 8055
2413 4691
2413 5464
2413 5757
2413 6386
2413 6774
2413 7161
2413 7724
2413 8056
2414 4692
2414 5465
2414 5758
2414 6387
2414 6775
2414 7162
2414 7725
2414 8057
2415 4693
2415 5466
2415 5759
2415 6388
2415 6776
2415 7163
2415 7726
2415 8058
2416 4694
2416 5467
2416 5760
2416 6389
2416 6777
2416 7164
2416 7727
2416 8059
2417 4695
2417 5468
2417 5761
2417 6390
2417 6778
2417 7165
2417 7728
2417 8060
2418 4696
2418 5469
2418 5762
2418 6391
2418 6779
2418 7166
2418 7729
2418 8061
2419 4697
2419 5470
2419 5763
2419 6392
2419 6780
2419 7167
2419 7730
2419 8062
2420 4698
2420 5471
2420 5764
2420 6393
2420 6781
2420 7168
2420 7731
2420 8063
2421 4699
2421 5472
2421 5765
2421 6394
2421 6782
2421 7169
2421 7732
2421 8064
2422 4700
2422 5473
2422 5766
2422 6395
2422 6783
2422 7170
2422 7733
2422 8065
2423 4701
2423 5474
2423 5767
2423 6396
2423 6784
2423 7171
2423 7734
2423 8066
2424 4702
2424 5475
2424 5768
2424 6397
2424 6785
2424 7009
2424 7735
2424 8067
2425 4703
2425 5476
2425 5769
2425 6398
2425 6786
2425 7010
2425 7736
2425 8068
2426 4704
2426 5477
2426 5770
2426 6399
2426 6787
2426 7011
2426 7737
2426 8069
2427 4705
2427 5478
2427 5771
2427 6400
2427 6788
2427 7012
2427 7738
2427 8070
2428 4706
2428 5479
2428 5772
2428 6401
2428 6789
2428 7013
2428 7739
2428 8071
2429 4707
2429 5480
2429 5773
2429 6402
2429 6790
2429 7014
2429 7740
2429 8072
2430 4708
2430 5481
2430 5774
2430 6403
2430 6791
2430 7015
2430 7741
2430 8073
2431 4709
2431 5482
2431 5775
2431 6404
2431 6792
2431 7016
2431 7742
2431 8074
2432 4710
2432 5483
2432 5776
2432 6405
2432 6793
2432 7017
2432 7743
2432 8075
2433 4711
2433 5484
2433 5777
2433 6406
2433 6794
2433 7018
2433 7744
2433 8076
2434 4712
2434 5485
2434 5778
2434 6407
2434 6795
2434 7019
2434 7745
2434 8077
2435 4713
2435 5486
2435 5779
2435 6408
2435 6796
2435 7020
2435 7746
2435 8078
2436 4714
2436 5487
2436 5780
2436 6409
2436 6797
2436 7021
2436 7747
2436 8079
2437 4715
2437 5488
2437 5781
2437 6410
2437 6798
2437 7022
2437 7748
2437 8080
2438 4716
2438 5489
2438 5782
2438 6411
2438 6799
2438 7023
2438 7749
2438 8081
2439 4717
2439 5490
2439 5783
2439 6412
2439 6800
2439 7024
2439 7750
2439 8082
2440 4718
2440 5491
2440 5784
2440 6413
2440 6801
2440 7025
2440 7751
2440 8083
2441 4719
2441 5492
2441 5785
2441 6414
2441 6802
2441 7026
2441 7752
2441 8084
2442 4720
2442 5493
2442 5786
2442 6415
2442 6803
2442 7027
2442 7753
2442 8085
2443 4721
2443 5494
2443 5787
2443 6416
2443 6804
2443 7028
2443 7754
2443 8086
2444 4722
2444 5495
2444 5788
2444 6417
2444 6805
2444 7029
2444 7755
2444 8087
2445 4815
2445 5576
2445 5976
2445 6645
2445 6911
2445 7199
2445 7853
2445 8210
2446 4816
2446 5577
2446 5977
2446 6646
2446 6912
2446 7200
2446 7854
2446 8211
2447 4817
2447 5578
2447 5978
2447 6647
2447 6913
2447 7201
2447 7855
2447 8212
2448 4818
2448 5579
2448 5979
2448 6648
2448 6914
2448 7202
2448 7856
2448 8213
2449 4819
2449 5580
2449 5980
2449 6649
2449 6915
2449 7203
2449 7857
2449 8214
2450 4820
2450 5581
2450 5981
2450 6650
2450 6916
2450 7204
2450 7858
2450 8215
2451 4821
2451 5582
2451 5982
2451 6651
2451 6917
2451 7205
2451 7859
2451 8216
2452 4822
2452 5583
2452 5983
2452 6652
2452 6918
2452 7206
2452 7860
2452 8217
2453 4823
2453 5584
2453 5984
2453 6653
2453 6919
2453 7207
2453 7861
2453 8218
2454 4824
2454 5585
2454 5985
2454 6654
2454 6920
2454 7208
2454 7862
2454 8219
2455 4825
2455 5586
2455 5986
2455 6655
2455 6921
2455 7209
2455 7863
2455 8220
2456 4826
2456 5587
2456 5987
2456 6656
2456 6922
2456 7210
2456 7864
2456 8221
2457 4827
2457 5588
2457 5988
2457 6657
2457 6923
2457 7211
2457 7865
2457 8222
2458 4828
2458 5589
2458 5989
2458 6658
2458 6924
2458 7212
2458 7866
2458 8223
2459 4829
2459 5590
2459 5990
2459 6659
2459 6925
2459 7213
2459 7867
2459 8224
2460 4830
2460 5591
2460 5991
2460 6660
2460 6926
2460 7214
2460 7868
2460 8225
2461 4831
2461 5592
2461 5992
2461 6661
2461 6927
2461 7215
2461 7869
2461 8226
2462 4832
2462 5593
2462 5993
2462 6662
2462 6928
2462 7216
2462 7870
2462 8227
2463 4833
2463 5594
2463 5994
2463 6663
2463 6929
2463 7217
2463 7871
2463 8228
2464 4834
2464 5595
2464 5995
2464 6664
2464 6930
2464 7218
2464 7872
2464 8229
2465 4835
2465 5596
2465 5996
2465 6665
2465 6931
2465 7219
2465 7873
2465 8230
2466 4836
2466 5597
2466 5997
2466 6666
2466 6932
2466 7220
2466 7874
2466 8231
2467 4837
2467 5598
2467 5998
2467 6667
2467 6933
2467 7221
2467 7875
2467 8232
2468 4838
2468 5599
2468 5999
2468 6668
2468 6934
2468 7222
2468 7876
2468 8233
2469 4839
2469 5600
2469 6000
2469 6669
2469 6935
2469 7223
2469 7877
2469 8234
2470 4840
2470 5601
2470 6001
2470 6670
2470 6936
2470 7224
2470 7878
2470 8235
2471 4841
2471 5602
2471 6002
2471 6671
2471 6937
2471 7225
2471 7879
2471 8236
2472 4842
2472 5603
2472 6003
2472 6672
2472 6938
2472 7226
2472 7880
2472 8237
2473 4843
2473 5604
2473 6004
2473 6673
2473 6939
2473 7227
2473 7881
2473 8238
2474 4844
2474 5605
2474 6005
2474 6674
2474 6940
2474 7228
2474 7882
2474 8239
2475 4845
2475 5606
2475 6006
2475 6675
2475 6941
2475 7229
2475 7883
2475 8240
2476 4846
2476 5607
2476 6007
2476 6676
2476 6942
2476 7230
2476 7884
2476 8241
2477 4847
2477 5608
2477 6008
2477 6677
2477 6943
2477 7231
2477 7885
2477 8242
2478 4848
2478 5609
2478 6009
2478 6678
2478 6944
2478 7232
2478 7886
2478 8243
2479 4849
2479 5610
2479 6010
2479 6679
2479 6945
2479 7233
2479 7887
2479 8244
2480 4850
2480 5611
2480 6011
2480 6680
2480 6946
2480 7234
2480 7888
2480 8245
2481 4851
2481 5612
2481 6012
2481 6681
2481 6947
2481 7235
2481 7889
2481 8246
2482 4852
2482 5613
2482 6013
2482 6682
2482 6948
2482 7236
2482 7890
2482 8247
2483 4853
2483 5614
2483 6014
2483 6520
2483 6949
2483 7237
2483 7891
2483 8248
2484 4854
2484 5615
2484 6015
2484 6521
2484 6950
2484 7238
2484 7892
2484 8249
2485 4855
2485 5616
2485 6016
2485 6522
2485 6951
2485 7239
2485 7893
2485 8250
2486 4856
2486 5617
2486 6017
2486 6523
2486 6952
2486 7240
2486 7894
2486 8251
2487 4857
2487 5618
2487 6018
2487 6524
2487 6953
2487 7241
2487 7895
2487 8252
2488 4858
2488 5619
2488 6019
2488 6525
2488 6954
2488 7242
2488 7896
2488 8253
2489 4859
2489 5620
2489 6020
2489 6526
2489 6955
2489 7243
2489 7897
2489 8254
2490 4860
2490 5621
2490 6021
2490 6527
2490 6956
2490 7244
2490 7898
2490 8255
2491 4861
2491 5622
2491 6022
2491 6528
2491 6957
2491 7245
2491 7899
2491 8256
2492 4862
2492 5623
2492 6023
2492 6529
2492 6958
2492 7246
2492 7900
2492 8257
2493 4863
2493 5624
2493 6024
2493 6530
2493 6959
2493 7247
2493 7901
2493 8258
2494 4864
2494 5625
2494 6025
2494 6531
2494 6960
2494 7248
2494 7902
2494 8259
2495 4865
2495 5626
2495 6026
2495 6532
2495 6961
2495 7249
2495 7903
2495 8260
2496 4866
2496 5627
2496 6027
2496 6533
2496 6962
2496 7250
2496 7904
2496 8261
2497 4867
2497 5628
2497 6028
2497 6534
2497 6963
2497 7251
2497 7905
2497 8262
2498 4868
2498 5629
2498 6029
2498 6535
2498 6964
2498 7252
2498 7906
2498 8263
2499 4869
2499 5630
2499 6030
2499 6536
2499 6965
2499 7253
2499 7907
2499 8264
2500 4870
2500 5631
2500 5868
2500 6537
2500 6966
2500 7254
2500 7908
2500 8265
2501 4871
2501 5632
2501 5869
2501 6538
2501 6967
2501 7255
2501 7909
2501 8266
2502 4872
2502 5633
2502 5870
2502 6539
2502 6968
2502 7256
2502 7910
2502 8267
2503 4873
2503 5634
2503 5871
2503 6540
2503 6969
2503 7257
2503 7911
2503 8268
2504 4874
2504 5635
2504 5872
2504 6541
2504 6970
2504 7258
2504 7912
2504 8269
2505 4875
2505 5636
2505 5873
2505 6542
2505 6971
2505 7259
2505 7913
2505 8270
2506 4876
2506 5637
2506 5874
2506 6543
2506 6972
2506 7260
2506 7914
2506 8271
2507 4877
2507 5638
2507 5875
2507 6544
2507 6973
2507 7261
2507 7915
2507 8272
2508 4878
2508 5639
2508 5876
2508 6545
2508 6974
2508 7262
2508 7916
2508 8273
2509 4879
2509 5640
2509 5877
2509 6546
2509 6975
2509 7263
2509 7917
2509 8274
2510 4880
2510 5641
2510 5878
2510 6547
2510 6976
2510 7264
2510 7918
2510 8275
2511 4881
2511 5642
2511 5879
2511 6548
2511 6977
2511 7265
2511 7919
2511 8276
2512 4882
2512 5643
2512 5880
2512 6549
2512 6978
2512 7266
2512 7920
2512 8277
2513 4883
2513 5644
2513 5881
2513 6550
2513 6979
2513 7267
2513 7921
2513 8278
2514 4884
2514 5645
2514 5882
2514 6551
2514 6980
2514 7268
2514 7922
2514 8279
2515 4885
2515 5646
2515 5883
2515 6552
2515 6981
2515 7269
2515 7923
2515 8280
2516 4886
2516 5647
2516 5884
2516 6553
2516 6982
2516 7270
2516 7924
2516 8281
2517 4887
2517 5648
2517 5885
2517 6554
2517 6983
2517 7271
2517 7925
2517 8282
2518 4888
2518 5649
2518 5886
2518 6555
2518 6984
2518 7272
2518 7926
2518 8283
2519 4889
2519 5650
2519 5887
2519 6556
2519 6985
2519 7273
2519 7927
2519 8284
2520 4727
2520 5651
2520 5888
2520 6557
2520 6986
2520 7274
2520 7928
2520 8285
2521 4728
2521 5652
2521 5889
2521 6558
2521 6987
2521 7275
2521 7929
2521 8286
2522 4729
2522 5653
2522 5890
2522 6559
2522 6988
2522 7276
2522 7930
2522 8287
2523 4730
2523 5654
2523 5891
2523 6560
2523 6989
2523 7277
2523 7931
2523 8288
2524 4731
2524 5655
2524 5892
2524 6561
2524 6990
2524 7278
2524 7932
2524 8289
2525 4732
2525 5656
2525 5893
2525 6562
2525 6991
2525 7279
2525 7933
2525 8290
2526 4733
2526 5657
2526 5894
2526 6563
2526 6992
2526 7280
2526 7934
2526 8291
2527 4734
2527 5658
2527 5895
2527 6564
2527 6993
2527 7281
2527 7935
2527 8292
2528 4735
2528 5659
2528 5896
2528 6565
2528 6994
2528 7282
2528 7936
2528 8293
2529 4736
2529 5660
2529 5897
2529 6566
2529 6995
2529 7283
2529 7937
2529 8294
2530 4737
2530 5661
2530 5898
2530 6567
2530 6996
2530 7284
2530 7938
2530 8295
2531 4738
2531 5662
2531 5899
2531 6568
2531 6997
2531 7285
2531 7939
2531 8296
2532 4739
2532 5663
2532 5900
2532 6569
2532 6998
2532 7286
2532 7940
2532 8297
2533 4740
2533 5664
2533 5901
2533 6570
2533 6999
2533 7287
2533 7941
2533 8298
2534 4741
2534 5665
2534 5902
2534 6571
2534 7000
2534 7288
2534 7942
2534 8299
2535 4742
2535 5666
2535 5903
2535 6572
2535 7001
2535 7289
2535 7943
2535 8300
2536 4743
2536 5667
2536 5904
2536 6573
2536 7002
2536 7290
2536 7944
2536 8301
2537 4744
2537 5668
2537 5905
2537 6574
2537 7003
2537 7291
2537 7945
2537 8302
2538 4745
2538 5669
2538 5906
2538 6575
2538 7004
2538 7292
2538 7946
2538 8303
2539 4746
2539 5670
2539 5907
2539 6576
2539 7005
2539 7293
2539 7947
2539 8304
2540 4747
2540 5671
2540 5908
2540 6577
2540 7006
2540 7294
2540 7948
2540 8305
2541 4748
2541 5672
2541 5909
2541 6578
2541 7007
2541 7295
2541 7949
2541 8306
2542 4749
2542 5673
2542 5910
2542 6579
2542 7008
2542 7296
2542 7950
2542 8307
2543 4750
2543 5674
2543 5911
2543 6580
2543 6846
2543 7297
2543 7951
2543 8308
2544 4751
2544 5675
2544 5912
2544 6581
2544 6847
2544 7298
2544 7952
2544 8309
2545 4752
2545 5676
2545 5913
2545 6582
2545 6848
2545 7299
2545 7953
2545 8310
2546 4753
2546 5677
2546 5914
2546 6583
2546 6849
2546 7300
2546 7954
2546 8311
2547 4754
2547 5678
2547 5915
2547 6584
2547 6850
2547 7301
2547 7955
2547 8312
2548 4755
2548 5679
2548 5916
2548 6585
2548 6851
2548 7302
2548 7956
2548 8150
2549 4756
2549 5680
2549 5917
2549 6586
2549 6852
2549 7303
2549 7957
2549 8151
2550 4757
2550 5681
2550 5918
2550 6587
2550 6853
2550 7304
2550 7958
2550 8152
2551 4758
2551 5682
2551 5919
2551 6588
2551 6854
2551 7305
2551 7959
2551 8153
2552 4759
2552 5683
2552 5920
2552 6589
2552 6855
2552 7306
2552 7960
2552 8154
2553 4760
2553 5684
2553 5921
2553 6590
2553 6856
2553 7307
2553 7961
2553 8155
2554 4761
2554 5685
2554 5922
2554 6591
2554 6857
2554 7308
2554 7962
2554 8156
2555 4762
2555 5686
2555 5923
2555 6592
2555 6858
2555 7309
2555 7963
2555 8157
2556 4763
2556 5687
2556 5924
2556 6593
2556 6859
2556 7310
2556 7964
2556 8158
2557 4764
2557 5688
2557 5925
2557 6594
2557 6860
2557 7311
2557 7965
2557 8159
2558 4765
2558 5689
2558 5926
2558 6595
2558 6861
2558 7312
2558 7966
2558 8160
2559 4766
2559 5690
2559 5927
2559 6596
2559 6862
2559 7313
2559 7967
2559 8161
2560 4767
2560 5691
2560 5928
2560 6597
2560 6863
2560 7314
2560 7968
2560 8162
2561 4768
2561 5692
2561 5929
2561 6598
2561 6864
2561 7315
2561 7969
2561 8163
2562 4769
2562 5693
2562 5930
2562 6599
2562 6865
2562 7316
2562 7970
2562 8164
2563 4770
2563 5694
2563 5931
2563 6600
2563 6866
2563 7317
2563 7971
2563 8165
2564 4771
2564 5695
2564 5932
2564 6601
2564 6867
2564 7318
2564 7972
2564 8166
2565 4772
2565 5696
2565 5933
2565 6602
2565 6868
2565 7319
2565 7973
2565 8167
2566 4773
2566 5697
2566 5934
2566 6603
2566 6869
2566 7320
2566 7974
2566 8168
2567 4774
2567 5698
2567 5935
2567 6604
2567 6870
2567 7321
2567 7975
2567 8169
2568 4775
2568 5699
2568 5936
2568 6605
2568 6871
2568 7322
2568 7976
2568 8170
2569 4776
2569 5700
2569 5937
2569 6606
2569 6872
2569 7323
2569 7977
2569 8171
2570 4777
2570 5701
2570 5938
2570 6607
2570 6873
2570 7324
2570 7978
2570 8172
2571 4778
2571 5702
2571 5939
2571 6608
2571 6874
2571 7325
2571 7979
2571 8173
2572 4779
2572 5703
2572 5940
2572 6609
2572 6875
2572 7326
2572 7980
2572 8174
2573 4780
2573 5704
2573 5941
2573 6610
2573 6876
2573 7327
2573 7981
2573 8175
2574 4781
2574 5542
2574 5942
2574 6611
2574 6877
2574 7328
2574 7982
2574 8176
2575 4782
2575 5543
2575 5943
2575 6612
2575 6878
2575 7329
2575 7983
2575 8177
2576 4783
2576 5544
2576 5944
2576 6613
2576 6879
2576 7330
2576 7984
2576 8178
2577 4784
2577 5545
2577 5945
2577 6614
2577 6880
2577 7331
2577 7985
2577 8179
2578 4785
2578 5546
2578 5946
2578 6615
2578 6881
2578 7332
2578 7986
2578 8180
2579 4786
2579 5547
2579 5947
2579 6616
2579 6882
2579 7333
2579 7824
2579 8181
2580 4787
2580 5548
2580 5948
2580 6617
2580 6883
2580 7334
2580 7825
2580 8182
2581 4788
2581 5549
2581 5949
2581 6618
2581 6884
2581 7172
2581 7826
2581 8183
2582 4789
2582 5550
2582 5950
2582 6619
2582 6885
2582 7173
2582 7827
2582 8184
2583 4790
2583 5551
2583 5951
2583 6620
2583 6886
2583 7174
2583 7828
2583 8185
2584 4791
2584 5552
2584 5952
2584 6621
2584 6887
2584 7175
2584 7829
2584 8186
2585 4792
2585 5553
2585 5953
2585 6622
2585 6888
2585 7176
2585 7830
2585 8187
2586 4793
2586 5554
2586 5954
2586 6623
2586 6889
2586 7177
2586 7831
2586 8188
2587 4794
2587 5555
2587 5955
2587 6624
2587 6890
2587 7178
2587 7832
2587 8189
2588 4795
2588 5556
2588 5956
2588 6625
2588 6891
2588 7179
2588 7833
2588 8190
2589 4796
2589 5557
2589 5957
2589 6626
2589 6892
2589 7180
2589 7834
2589 8191
2590 4797
2590 5558
2590 5958
2590 6627
2590 6893
2590 7181
2590 7835
2590 8192
2591 4798
2591 5559
2591 5959
2591 6628
2591 6894
2591 7182
2591 7836
2591 8193
2592 4799
2592 5560
2592 5960
2592 6629
2592 6895
2592 7183
2592 7837
2592 8194
2593 4800
2593 5561
2593 5961
2593 6630
2593 6896
2593 7184
2593 7838
2593 8195
2594 4801
2594 5562
2594 5962
2594 6631
2594 6897
2594 7185
2594 7839
2594 8196
2595 4802
2595 5563
2595 5963
2595 6632
2595 6898
2595 7186
2595 7840
2595 8197
2596 4803
2596 5564
2596 5964
2596 6633
2596 6899
2596 7187
2596 7841
2596 8198
2597 4804
2597 5565
2597 5965
2597 6634
2597 6900
2597 7188
2597 7842
2597 8199
2598 4805
2598 5566
2598 5966
2598 6635
2598 6901
2598 7189
2598 7843
2598 8200
2599 4806
2599 5567
2599 5967
2599 6636
2599 6902
2599 7190
2599 7844
2599 8201
2600 4807
2600 5568
2600 5968
2600 6637
2600 6903
2600 7191
2600 7845
2600 8202
2601 4808
2601 5569
2601 5969
2601 6638
2601 6904
2601 7192
2601 7846
2601 8203
2602 4809
2602 5570
2602 5970
2602 6639
2602 6905
2602 7193
2602 7847
2602 8204
2603 4810
2603 5571
2603 5971
2603 6640
2603 6906
2603 7194
2603 7848
2603 8205
2604 4811
2604 5572
2604 5972
2604 6641
2604 6907
2604 7195
2604 7849
2604 8206
2605 4812
2605 5573
2605 5973
2605 6642
2605 6908
2605 7196
2605 7850
2605 8207
2606 4813
2606 5574
2606 5974
2606 6643
2606 6909
2606 7197
2606 7851
2606 8208
2607 4814
2607 5575
2607 5975
2607 6644
2607 6910
2607 7198
2607 7852
2607 8209
2608 4910
2608 5772
2608 6100
2608 6704
2608 7046
2608 7393
2608 8001
2608 8460
2609 4911
2609 5773
2609 6101
2609 6705
2609 7047
2609 7394
2609 8002
2609 8461
2610 4912
2610 5774
2610 6102
2610 6706
2610 7048
2610 7395
2610 8003
2610 8462
2611 4913
2611 5775
2611 6103
2611 6707
2611 7049
2611 7396
2611 8004
2611 8463
2612 4914
2612 5776
2612 6104
2612 6708
2612 7050
2612 7397
2612 8005
2612 8464
2613 4915
2613 5777
2613 6105
2613 6709
2613 7051
2613 7398
2613 8006
2613 8465
2614 4916
2614 5778
2614 6106
2614 6710
2614 7052
2614 7399
2614 8007
2614 8466
2615 4917
2615 5779
2615 6107
2615 6711
2615 7053
2615 7400
2615 8008
2615 8467
2616 4918
2616 5780
2616 6108
2616 6712
2616 7054
2616 7401
2616 8009
2616 8468
2617 4919
2617 5781
2617 6109
2617 6713
2617 7055
2617 7402
2617 8010
2617 8469
2618 4920
2618 5782
2618 6110
2618 6714
2618 7056
2618 7403
2618 8011
2618 8470
2619 4921
2619 5783
2619 6111
2619 6715
2619 7057
2619 7404
2619 8012
2619 8471
2620 4922
2620 5784
2620 6112
2620 6716
2620 7058
2620 7405
2620 8013
2620 8472
2621 4923
2621 5785
2621 6113
2621 6717
2621 7059
2621 7406
2621 8014
2621 8473
2622 4924
2622 5786
2622 6114
2622 6718
2622 7060
2622 7407
2622 8015
2622 8474
2623 4925
2623 5787
2623 6115
2623 6719
2623 7061
2623 7408
2623 8016
2623 8475
2624 4926
2624 5788
2624 6116
2624 6720
2624 7062
2624 7409
2624 8017
2624 8313
2625 4927
2625 5789
2625 6117
2625 6721
2625 7063
2625 7410
2625 8018
2625 8314
2626 4928
2626 5790
2626 6118
2626 6722
2626 7064
2626 7411
2626 8019
2626 8315
2627 4929
2627 5791
2627 6119
2627 6723
2627 7065
2627 7412
2627 8020
2627 8316
2628 4930
2628 5792
2628 6120
2628 6724
2628 7066
2628 7413
2628 8021
2628 8317
2629 4931
2629 5793
2629 6121
2629 6725
2629 7067
2629 7414
2629 8022
2629 8318
2630 4932
2630 5794
2630 6122
2630 6726
2630 7068
2630 7415
2630 8023
2630 8319
2631 4933
2631 5795
2631 6123
2631 6727
2631 7069
2631 7416
2631 8024
2631 8320
2632 4934
2632 5796
2632 6124
2632 6728
2632 7070
2632 7417
2632 8025
2632 8321
2633 4935
2633 5797
2633 6125
2633 6729
2633 7071
2633 7418
2633 8026
2633 8322
2634 4936
2634 5798
2634 6126
2634 6730
2634 7072
2634 7419
2634 8027
2634 8323
2635 4937
2635 5799
2635 6127
2635 6731
2635 7073
2635 7420
2635 8028
2635 8324
2636 4938
2636 5800
2636 6128
2636 6732
2636 7074
2636 7421
2636 8029
2636 8325
2637 4939
2637 5801
2637 6129
2637 6733
2637 7075
2637 7422
2637 8030
2637 8326
2638 4940
2638 5802
2638 6130
2638 6734
2638 7076
2638 7423
2638 8031
2638 8327
2639 4941
2639 5803
2639 6131
2639 6735
2639 7077
2639 7424
2639 8032
2639 8328
2640 4942
2640 5804
2640 6132
2640 6736
2640 7078
2640 7425
2640 8033
2640 8329
2641 4943
2641 5805
2641 6133
2641 6737
2641 7079
2641 7426
2641 8034
2641 8330
2642 4944
2642 5806
2642 6134
2642 6738
2642 7080
2642 7427
2642 8035
2642 8331
2643 4945
2643 5807
2643 6135
2643 6739
2643 7081
2643 7428
2643 8036
2643 8332
2644 4946
2644 5808
2644 6136
2644 6740
2644 7082
2644 7429
2644 8037
2644 8333
2645 4947
2645 5809
2645 6137
2645 6741
2645 7083
2645 7430
2645 8038
2645 8334
2646 4948
2646 5810
2646 6138
2646 6742
2646 7084
2646 7431
2646 8039
2646 8335
2647 4949
2647 5811
2647 6139
2647 6743
2647 7085
2647 7432
2647 8040
2647 8336
2648 4950
2648 5812
2648 6140
2648 6744
2648 7086
2648 7433
2648 8041
2648 8337
2649 4951
2649 5813
2649 6141
2649 6745
2649 7087
2649 7434
2649 8042
2649 8338
2650 4952
2650 5814
2650 6142
2650 6746
2650 7088
2650 7435
2650 8043
2650 8339
2651 4953
2651 5815
2651 6143
2651 6747
2651 7089
2651 7436
2651 8044
2651 8340
2652 4954
2652 5816
2652 6144
2652 6748
2652 7090
2652 7437
2652 8045
2652 8341
2653 4955
2653 5817
2653 6145
2653 6749
2653 7091
2653 7438
2653 8046
2653 8342
2654 4956
2654 5818
2654 6146
2654 6750
2654 7092
2654 7439
2654 8047
2654 8343
2655 4957
2655 5819
2655 6147
2655 6751
2655 7093
2655 7440
2655 8048
2655 8344
2656 4958
2656 5820
2656 6148
2656 6752
2656 7094
2656 7441
2656 8049
2656 8345
2657 4959
2657 5821
2657 6149
2657 6753
2657 7095
2657 7442
2657 8050
2657 8346
2658 4960
2658 5822
2658 6150
2658 6754
2658 7096
2658 7443
2658 8051
2658 8347
2659 4961
2659 5823
2659 6151
2659 6755
2659 7097
2659 7444
2659 8052
2659 8348
2660 4962
2660 5824
2660 6152
2660 6756
2660 7098
2660 7445
2660 8053
2660 8349
2661 4963
2661 5825
2661 6153
2661 6757
2661 7099
2661 7446
2661 8054
2661 8350
2662 4964
2662 5826
2662 6154
2662 6758
2662 7100
2662 7447
2662 8055
2662 8351
2663 4965
2663 5827
2663 6155
2663 6759
2663 7101
2663 7448
2663 8056
2663 8352
2664 4966
2664 5828
2664 6156
2664 6760
2664 7102
2664 7449
2664 8057
2664 8353
2665 4967
2665 5829
2665 6157
2665 6761
2665 7103
2665 7450
2665 8058
2665 8354
2666 4968
2666 5830
2666 6158
2666 6762
2666 7104
2666 7451
2666 8059
2666 8355
2667 4969
2667 5831
2667 6159
2667 6763
2667 7105
2667 7452
2667 8060
2667 8356
2668 4970
2668 5832
2668 6160
2668 6764
2668 7106
2668 7453
2668 8061
2668 8357
2669 4971
2669 5833
2669 6161
2669 6765
2669 7107
2669 7454
2669 8062
2669 8358
2670 4972
2670 5834
2670 6162
2670 6766
2670 7108
2670 7455
2670 8063
2670 8359
2671 4973
2671 5835
2671 6163
2671 6767
2671 7109
2671 7456
2671 8064
2671 8360
2672 4974
2672 5836
2672 6164
2672 6768
2672 7110
2672 7457
2672 8065
2672 8361
2673 4975
2673 5837
2673 6165
2673 6769
2673 7111
2673 7458
2673 8066
2673 8362
2674 4976
2674 5838
2674 6166
2674 6770
2674 7112
2674 7459
2674 8067
2674 8363
2675 4977
2675 5839
2675 6167
2675 6771
2675 7113
2675 7460
2675 8068
2675 8364
2676 4978
2676 5840
2676 6168
2676 6772
2676 7114
2676 7461
2676 8069
2676 8365
2677 4979
2677 5841
2677 6169
2677 6773
2677 7115
2677 7462
2677 8070
2677 8366
2678 4980
2678 5842
2678 6170
2678 6774
2678 7116
2678 7463
2678 8071
2678 8367
2679 4981
2679 5843
2679 6171
2679 6775
2679 7117
2679 7464
2679 8072
2679 8368
2680 4982
2680 5844
2680 6172
2680 6776
2680 7118
2680 7465
2680 8073
2680 8369
2681 4983
2681 5845
2681 6173
2681 6777
2681 7119
2681 7466
2681 8074
2681 8370
2682 4984
2682 5846
2682 6174
2682 6778
2682 7120
2682 7467
2682 8075
2682 8371
2683 4985
2683 5847
2683 6175
2683 6779
2683 7121
2683 7468
2683 8076
2683 8372
2684 4986
2684 5848
2684 6176
2684 6780
2684 7122
2684 7469
2684 8077
2684 8373
2685 4987
2685 5849
2685 6177
2685 6781
2685 7123
2685 7470
2685 8078
2685 8374
2686 4988
2686 5850
2686 6178
2686 6782
2686 7124
2686 7471
2686 8079
2686 8375
2687 4989
2687 5851
2687 6179
2687 6783
2687 7125
2687 7472
2687 8080
2687 8376
2688 4990
2688 5852
2688 6180
2688 6784
2688 7126
2688 7473
2688 8081
2688 8377
2689 4991
2689 5853
2689 6181
2689 6785
2689 7127
2689 7474
2689 8082
2689 8378
2690 4992
2690 5854
2690 6182
2690 6786
2690 7128
2690 7475
2690 8083
2690 8379
2691 4993
2691 5855
2691 6183
2691 6787
2691 7129
2691 7476
2691 8084
2691 8380
2692 4994
2692 5856
2692 6184
2692 6788
2692 7130
2692 7477
2692 8085
2692 8381
2693 4995
2693 5857
2693 6185
2693 6789
2693 7131
2693 7478
2693 8086
2693 8382
2694 4996
2694 5858
2694 6186
2694 6790
2694 7132
2694 7479
2694 8087
2694 8383
2695 4997
2695 5859
2695 6187
2695 6791
2695 7133
2695 7480
2695 8088
2695 8384
2696 4998
2696 5860
2696 6188
2696 6792
2696 7134
2696 7481
2696 8089
2696 8385
2697 4999
2697 5861
2697 6189
2697 6793
2697 7135
2697 7482
2697 8090
2697 8386
2698 5000
2698 5862
2698 6190
2698 6794
2698 7136
2698 7483
2698 8091
2698 8387
2699 5001
2699 5863
2699 6191
2699 6795
2699 7137
2699 7484
2699 8092
2699 8388
2700 5002
2700 5864
2700 6192
2700 6796
2700 7138
2700 7485
2700 8093
2700 8389
2701 5003
2701 5865
2701 6193
2701 6797
2701 7139
2701 7486
2701 8094
2701 8390
2702 5004
2702 5866
2702 6031
2702 6798
2702 7140
2702 7487
2702 8095
2702 8391
2703 5005
2703 5867
2703 6032
2703 6799
2703 7141
2703 7488
2703 8096
2703 8392
2704 5006
2704 5705
2704 6033
2704 6800
2704 7142
2704 7489
2704 8097
2704 8393
2705 5007
2705 5706
2705 6034
2705 6801
2705 7143
2705 7490
2705 8098
2705 8394
2706 5008
2706 5707
2706 6035
2706 6802
2706 7144
2706 7491
2706 8099
2706 8395
2707 5009
2707 5708
2707 6036
2707 6803
2707 7145
2707 7492
2707 8100
2707 8396
2708 5010
2708 5709
2708 6037
2708 6804
2708 7146
2708 7493
2708 8101
2708 8397
2709 5011
2709 5710
2709 6038
2709 6805
2709 7147
2709 7494
2709 8102
2709 8398
2710 5012
2710 5711
2710 6039
2710 6806
2710 7148
2710 7495
2710 8103
2710 8399
2711 5013
2711 5712
2711 6040
2711 6807
2711 7149
2711 7496
2711 8104
2711 8400
2712 5014
2712 5713
2712 6041
2712 6808
2712 7150
2712 7497
2712 8105
2712 8401
2713 5015
2713 5714
2713 6042
2713 6809
2713 7151
2713 7335
2713 8106
2713 8402
2714 5016
2714 5715
2714 6043
2714 6810
2714 7152
2714 7336
2714 8107
2714 8403
2715 5017
2715 5716
2715 6044
2715 6811
2715 7153
2715 7337
2715 8108
2715 8404
2716 5018
2716 5717
2716 6045
2716 6812
2716 7154
2716 7338
2716 8109
2716 8405
2717 5019
2717 5718
2717 6046
2717 6813
2717 7155
2717 7339
2717 8110
2717 8406
2718 5020
2718 5719
2718 6047
2718 6814
2718 7156
2718 7340
2718 8111
2718 8407
2719 5021
2719 5720
2719 6048
2719 6815
2719 7157
2719 7341
2719 8112
2719 8408
2720 5022
2720 5721
2720 6049
2720 6816
2720 7158
2720 7342
2720 8113
2720 8409
2721 5023
2721 5722
2721 6050
2721 6817
2721 7159
2721 7343
2721 8114
2721 8410
2722 5024
2722 5723
2722 6051
2722 6818
2722 7160
2722 7344
2722 8115
2722 8411
2723 5025
2723 5724
2723 6052
2723 6819
2723 7161
2723 7345
2723 8116
2723 8412
2724 5026
2724 5725
2724 6053
2724 6820
2724 7162
2724 7346
2724 8117
2724 8413
2725 5027
2725 5726
2725 6054
2725 6821
2725 7163
2725 7347
2725 8118
2725 8414
2726 5028
2726 5727
2726 6055
2726 6822
2726 7164
2726 7348
2726 8119
2726 8415
2727 5029
2727 5728
2727 6056
2727 6823
2727 7165
2727 7349
2727 8120
2727 8416
2728 5030
2728 5729
2728 6057
2728 6824
2728 7166
2728 7350
2728 8121
2728 8417
2729 5031
2729 5730
2729 6058
2729 6825
2729 7167
2729 7351
2729 8122
2729 8418
2730 5032
2730 5731
2730 6059
2730 6826
2730 7168
2730 7352
2730 8123
2730 8419
2731 5033
2731 5732
2731 6060
2731 6827
2731 7169
2731 7353
2731 8124
2731 8420
2732 5034
2732 5733
2732 6061
2732 6828
2732 7170
2732 7354
2732 8125
2732 8421
2733 5035
2733 5734
2733 6062
2733 6829
2733 7171
2733 7355
2733 8126
2733 8422
2734 5036
2734 5735
2734 6063
2734 6830
2734 7009
2734 7356
2734 8127
2734 8423
2735 5037
2735 5736
2735 6064
2735 6831
2735 7010
2735 7357
2735 8128
2735 8424
2736 5038
2736 5737
2736 6065
2736 6832
2736 7011
2736 7358
2736 8129
2736 8425
2737 5039
2737 5738
2737 6066
2737 6833
2737 7012
2737 7359
2737 8130
2737 8426
2738 5040
2738 5739
2738 6067
2738 6834
2738 7013
2738 7360
2738 8131
2738 8427
2739 5041
2739 5740
2739 6068
2739 6835
2739 7014
2739 7361
2739 8132
2739 8428
2740 5042
2740 5741
2740 6069
2740 6836
2740 7015
2740 7362
2740 8133
2740 8429
2741 5043
2741 5742
2741 6070
2741 6837
2741 7016
2741 7363
2741 8134
2741 8430
2742 5044
2742 5743
2742 6071
2742 6838
2742 7017
2742 7364
2742 8135
2742 8431
2743 5045
2743 5744
2743 6072
2743 6839
2743 7018
2743 7365
2743 8136
2743 8432
2744 5046
2744 5745
2744 6073
2744 6840
2744 7019
2744 7366
2744 8137
2744 8433
2745 5047
2745 5746
2745 6074
2745 6841
2745 7020
2745 7367
2745 8138
2745 8434
2746 5048
2746 5747
2746 6075
2746 6842
2746 7021
2746 7368
2746 8139
2746 8435
2747 5049
2747 5748
2747 6076
2747 6843
2747 7022
2747 7369
2747 8140
2747 8436
2748 5050
2748 5749
2748 6077
2748 6844
2748 7023
2748 7370
2748 8141
2748 8437
2749 5051
2749 5750
2749 6078
2749 6845
2749 7024
2749 7371
2749 8142
2749 8438
2750 5052
2750 5751
2750 6079
2750 6683
2750 7025
2750 7372
2750 8143
2750 8439
2751 4890
2751 5752
2751 6080
2751 6684
2751 7026
2751 7373
2751 8144
2751 8440
2752 4891
2752 5753
2752 6081
2752 6685
2752 7027
2752 7374
2752 8145
2752 8441
2753 4892
2753 5754
2753 6082
2753 6686
2753 7028
2753 7375
2753 8146
2753 8442
2754 4893
2754 5755
2754 6083
2754 6687
2754 7029
2754 7376
2754 8147
2754 8443
2755 4894
2755 5756
2755 6084
2755 6688
2755 7030
2755 7377
2755 8148
2755 8444
2756 4895
2756 5757
2756 6085
2756 6689
2756 7031
2756 7378
2756 8149
2756 8445
2757 4896
2757 5758
2757 6086
2757 6690
2757 7032
2757 7379
2757 7987
2757 8446
2758 4897
2758 5759
2758 6087
2758 6691
2758 7033
2758 7380
2758 7988
2758 8447
2759 4898
2759 5760
2759 6088
2759 6692
2759 7034
2759 7381
2759 7989
2759 8448
2760 4899
2760 5761
2760 6089
2760 6693
2760 7035
2760 7382
2760 7990
2760 8449
2761 4900
2761 5762
2761 6090
2761 6694
2761 7036
2761 7383
2761 7991
2761 8450
2762 4901
2762 5763
2762 6091
2762 6695
2762 7037
2762 7384
2762 7992
2762 8451
2763 4902
2763 5764
2763 6092
2763 6696
2763 7038
2763 7385
2763 7993
2763 8452
2764 4903
2764 5765
2764 6093
2764 6697
2764 7039
2764 7386
2764 7994
2764 8453
2765 4904
2765 5766
2765 6094
2765 6698
2765 7040
2765 7387
2765 7995
2765 8454
2766 4905
2766 5767
2766 6095
2766 6699
2766 7041
2766 7388
2766 7996
2766 8455
2767 4906
2767 5768
2767 6096
2767 6700
2767 7042
2767 7389
2767 7997
2767 8456
2768 4907
2768 5769
2768 6097
2768 6701
2768 7043
2768 7390
2768 7998
2768 8457
2769 4908
2769 5770
2769 6098
2769 6702
2769 7044
2769 7391
2769 7999
2769 8458
2770 4909
2770 5771
2770 6099
2770 6703
2770 7045
2770 7392
2770 8000
2770 8459
2771 5102
2771 6024
2771 6306
2771 6873
2771 7173
2771 7526
2771 8168
2771 8502
2772 5103
2772 6025
2772 6307
2772 6874
2772 7174
2772 7527
2772 8169
2772 8503
2773 5104
2773 6026
2773 6308
2773 6875
2773 7175
2773 7528
2773 8170
2773 8504
2774 5105
2774 6027
2774 6309
2774 6876
2774 7176
2774 7529
2774 8171
2774 8505
2775 5106
2775 6028
2775 6310
2775 6877
2775 7177
2775 7530
2775 8172
2775 8506
2776 5107
2776 6029
2776 6311
2776 6878
2776 7178
2776 7531
2776 8173
2776 8507
2777 5108
2777 6030
2777 6312
2777 6879
2777 7179
2777 7532
2777 8174
2777 8508
2778 5109
2778 5868
2778 6313
2778 6880
2778 7180
2778 7533
2778 8175
2778 8509
2779 5110
2779 5869
2779 6314
2779 6881
2779 7181
2779 7534
2779 8176
2779 8510
2780 5111
2780 5870
2780 6315
2780 6882
2780 7182
2780 7535
2780 8177
2780 8511
2781 5112
2781 5871
2781 6316
2781 6883
2781 7183
2781 7536
2781 8178
2781 8512
2782 5113
2782 5872
2782 6317
2782 6884
2782 7184
2782 7537
2782 8179
2782 8513
2783 5114
2783 5873
2783 6318
2783 6885
2783 7185
2783 7538
2783 8180
2783 8514
2784 5115
2784 5874
2784 6319
2784 6886
2784 7186
2784 7539
2784 8181
2784 8515
2785 5116
2785 5875
2785 6320
2785 6887
2785 7187
2785 7540
2785 8182
2785 8516
2786 5117
2786 5876
2786 6321
2786 6888
2786 7188
2786 7541
2786 8183
2786 8517
2787 5118
2787 5877
2787 6322
2787 6889
2787 7189
2787 7542
2787 8184
2787 8518
2788 5119
2788 5878
2788 6323
2788 6890
2788 7190
2788 7543
2788 8185
2788 8519
2789 5120
2789 5879
2789 6324
2789 6891
2789 7191
2789 7544
2789 8186
2789 8520
2790 5121
2790 5880
2790 6325
2790 6892
2790 7192
2790 7545
2790 8187
2790 8521
2791 5122
2791 5881
2791 6326
2791 6893
2791 7193
2791 7546
2791 8188
2791 8522
2792 5123
2792 5882
2792 6327
2792 6894
2792 7194
2792 7547
2792 8189
2792 8523
2793 5124
2793 5883
2793 6328
2793 6895
2793 7195
2793 7548
2793 8190
2793 8524
2794 5125
2794 5884
2794 6329
2794 6896
2794 7196
2794 7549
2794 8191
2794 8525
2795 5126
2795 5885
2795 6330
2795 6897
2795 7197
2795 7550
2795 8192
2795 8526
2796 5127
2796 5886
2796 6331
2796 6898
2796 7198
2796 7551
2796 8193
2796 8527
2797 5128
2797 5887
2797 6332
2797 6899
2797 7199
2797 7552
2797 8194
2797 8528
2798 5129
2798 5888
2798 6333
2798 6900
2798 7200
2798 7553
2798 8195
2798 8529
2799 5130
2799 5889
2799 6334
2799 6901
2799 7201
2799 7554
2799 8196
2799 8530
2800 5131
2800 5890
2800 6335
2800 6902
2800 7202
2800 7555
2800 8197
2800 8531
2801 5132
2801 5891
2801 6336
2801 6903
2801 7203
2801 7556
2801 8198
2801 8532
2802 5133
2802 5892
2802 6337
2802 6904
2802 7204
2802 7557
2802 8199
2802 8533
2803 5134
2803 5893
2803 6338
2803 6905
2803 7205
2803 7558
2803 8200
2803 8534
2804 5135
2804 5894
2804 6339
2804 6906
2804 7206
2804 7559
2804 8201
2804 8535
2805 5136
2805 5895
2805 6340
2805 6907
2805 7207
2805 7560
2805 8202
2805 8536
2806 5137
2806 5896
2806 6341
2806 6908
2806 7208
2806 7561
2806 8203
2806 8537
2807 5138
2807 5897
2807 6342
2807 6909
2807 7209
2807 7562
2807 8204
2807 8538
2808 5139
2808 5898
2808 6343
2808 6910
2808 7210
2808 7563
2808 8205
2808 8539
2809 5140
2809 5899
2809 6344
2809 6911
2809 7211
2809 7564
2809 8206
2809 8540
2810 5141
2810 5900
2810 6345
2810 6912
2810 7212
2810 7565
2810 8207
2810 8541
2811 5142
2811 5901
2811 6346
2811 6913
2811 7213
2811 7566
2811 8208
2811 8542
2812 5143
2812 5902
2812 6347
2812 6914
2812 7214
2812 7567
2812 8209
2812 8543
2813 5144
2813 5903
2813 6348
2813 6915
2813 7215
2813 7568
2813 8210
2813 8544
2814 5145
2814 5904
2814 6349
2814 6916
2814 7216
2814 7569
2814 8211
2814 8545
2815 5146
2815 5905
2815 6350
2815 6917
2815 7217
2815 7570
2815 8212
2815 8546
2816 5147
2816 5906
2816 6351
2816 6918
2816 7218
2816 7571
2816 8213
2816 8547
2817 5148
2817 5907
2817 6352
2817 6919
2817 7219
2817 7572
2817 8214
2817 8548
2818 5149
2818 5908
2818 6353
2818 6920
2818 7220
2818 7573
2818 8215
2818 8549
2819 5150
2819 5909
2819 6354
2819 6921
2819 7221
2819 7574
2819 8216
2819 8550
2820 5151
2820 5910
2820 6355
2820 6922
2820 7222
2820 7575
2820 8217
2820 8551
2821 5152
2821 5911
2821 6356
2821 6923
2821 7223
2821 7576
2821 8218
2821 8552
2822 5153
2822 5912
2822 6194
2822 6924
2822 7224
2822 7577
2822 8219
2822 8553
2823 5154
2823 5913
2823 6195
2823 6925
2823 7225
2823 7578
2823 8220
2823 8554
2824 5155
2824 5914
2824 6196
2824 6926
2824 7226
2824 7579
2824 8221
2824 8555
2825 5156
2825 5915
2825 6197
2825 6927
2825 7227
2825 7580
2825 8222
2825 8556
2826 5157
2826 5916
2826 6198
2826 6928
2826 7228
2826 7581
2826 8223
2826 8557
2827 5158
2827 5917
2827 6199
2827 6929
2827 7229
2827 7582
2827 8224
2827 8558
2828 5159
2828 5918
2828 6200
2828 6930
2828 7230
2828 7583
2828 8225
2828 8559
2829 5160
2829 5919
2829 6201
2829 6931
2829 7231
2829 7584
2829 8226
2829 8560
2830 5161
2830 5920
2830 6202
2830 6932
2830 7232
2830 7585
2830 8227
2830 8561
2831 5162
2831 5921
2831 6203
2831 6933
2831 7233
2831 7586
2831 8228
2831 8562
2832 5163
2832 5922
2832 6204
2832 6934
2832 7234
2832 7587
2832 8229
2832 8563
2833 5164
2833 5923
2833 6205
2833 6935
2833 7235
2833 7588
2833 8230
2833 8564
2834 5165
2834 5924
2834 6206
2834 6936
2834 7236
2834 7589
2834 8231
2834 8565
2835 5166
2835 5925
2835 6207
2835 6937
2835 7237
2835 7590
2835 8232
2835 8566
2836 5167
2836 5926
2836 6208
2836 6938
2836 7238
2836 7591
2836 8233
2836 8567
2837 5168
2837 5927
2837 6209
2837 6939
2837 7239
2837 7592
2837 8234
2837 8568
2838 5169
2838 5928
2838 6210
2838 6940
2838 7240
2838 7593
2838 8235
2838 8569
2839 5170
2839 5929
2839 6211
2839 6941
2839 7241
2839 7594
2839 8236
2839 8570
2840 5171
2840 5930
2840 6212
2840 6942
2840 7242
2840 7595
2840 8237
2840 8571
2841 5172
2841 5931
2841 6213
2841 6943
2841 7243
2841 7596
2841 8238
2841 8572
2842 5173
2842 5932
2842 6214
2842 6944
2842 7244
2842 7597
2842 8239
2842 8573
2843 5174
2843 5933
2843 6215
2843 6945
2843 7245
2843 7598
2843 8240
2843 8574
2844 5175
2844 5934
2844 6216
2844 6946
2844 7246
2844 7599
2844 8241
2844 8575
2845 5176
2845 5935
2845 6217
2845 6947
2845 7247
2845 7600
2845 8242
2845 8576
2846 5177
2846 5936
2846 6218
2846 6948
2846 7248
2846 7601
2846 8243
2846 8577
2847 5178
2847 5937
2847 6219
2847 6949
2847 7249
2847 7602
2847 8244
2847 8578
2848 5179
2848 5938
2848 6220
2848 6950
2848 7250
2848 7603
2848 8245
2848 8579
2849 5180
2849 5939
2849 6221
2849 6951
2849 7251
2849 7604
2849 8246
2849 8580
2850 5181
2850 5940
2850 6222
2850 6952
2850 7252
2850 7605
2850 8247
2850 8581
2851 5182
2851 5941
2851 6223
2851 6953
2851 7253
2851 7606
2851 8248
2851 8582
2852 5183
2852 5942
2852 6224
2852 6954
2852 7254
2852 7607
2852 8249
2852 8583
2853 5184
2853 5943
2853 6225
2853 6955
2853 7255
2853 7608
2853 8250
2853 8584
2854 5185
2854 5944
2854 6226
2854 6956
2854 7256
2854 7609
2854 8251
2854 8585
2855 5186
2855 5945
2855 6227
2855 6957
2855 7257
2855 7610
2855 8252
2855 8586
2856 5187
2856 5946
2856 6228
2856 6958
2856 7258
2856 7611
2856 8253
2856 8587
2857 5188
2857 5947
2857 6229
2857 6959
2857 7259
2857 7612
2857 8254
2857 8588
2858 5189
2858 5948
2858 6230
2858 6960
2858 7260
2858 7613
2858 8255
2858 8589
2859 5190
2859 5949
2859 6231
2859 6961
2859 7261
2859 7614
2859 8256
2859 8590
2860 5191
2860 5950
2860 6232
2860 6962
2860 7262
2860 7615
2860 8257
2860 8591
2861 5192
2861 5951
2861 6233
2861 6963
2861 7263
2861 7616
2861 8258
2861 8592
2862 5193
2862 5952
2862 6234
2862 6964
2862 7264
2862 7617
2862 8259
2862 8593
2863 5194
2863 5953
2863 6235
2863 6965
2863 7265
2863 7618
2863 8260
2863 8594
2864 5195
2864 5954
2864 6236
2864 6966
2864 7266
2864 7619
2864 8261
2864 8595
2865 5196
2865 5955
2865 6237
2865 6967
2865 7267
2865 7620
2865 8262
2865 8596
2866 5197
2866 5956
2866 6238
2866 6968
2866 7268
2866 7621
2866 8263
2866 8597
2867 5198
2867 5957
2867 6239
2867 6969
2867 7269
2867 7622
2867 8264
2867 8598
2868 5199
2868 5958
2868 6240
2868 6970
2868 7270
2868 7623
2868 8265
2868 8599
2869 5200
2869 5959
2869 6241
2869 6971
2869 7271
2869 7624
2869 8266
2869 8600
2870 5201
2870 5960
2870 6242
2870 6972
2870 7272
2870 7625
2870 8267
2870 8601
2871 5202
2871 5961
2871 6243
2871 6973
2871 7273
2871 7626
2871 8268
2871 8602
2872 5203
2872 5962
2872 6244
2872 6974
2872 7274
2872 7627
2872 8269
2872 8603
2873 5204
2873 5963
2873 6245
2873 6975
2873 7275
2873 7628
2873 8270
2873 8604
2874 5205
2874 5964
2874 6246
2874 6976
2874 7276
2874 7629
2874 8271
2874 8605
2875 5206
2875 5965
2875 6247
2875 6977
2875 7277
2875 7630
2875 8272
2875 8606
2876 5207
2876 5966
2876 6248
2876 6978
2876 7278
2876 7631
2876 8273
2876 8607
2877 5208
2877 5967
2877 6249
2877 6979
2877 7279
2877 7632
2877 8274
2877 8608
2878 5209
2878 5968
2878 6250
2878 6980
2878 7280
2878 7633
2878 8275
2878 8609
2879 5210
2879 5969
2879 6251
2879 6981
2879 7281
2879 7634
2879 8276
2879 8610
2880 5211
2880 5970
2880 6252
2880 6982
2880 7282
2880 7635
2880 8277
2880 8611
2881 5212
2881 5971
2881 6253
2881 6983
2881 7283
2881 7636
2881 8278
2881 8612
2882 5213
2882 5972
2882 6254
2882 6984
2882 7284
2882 7637
2882 8279
2882 8613
2883 5214
2883 5973
2883 6255
2883 6985
2883 7285
2883 7638
2883 8280
2883 8614
2884 5215
2884 5974
2884 6256
2884 6986
2884 7286
2884 7639
2884 8281
2884 8615
2885 5053
2885 5975
2885 6257
2885 6987
2885 7287
2885 7640
2885 8282
2885 8616
2886 5054
2886 5976
2886 6258
2886 6988
2886 7288
2886 7641
2886 8283
2886 8617
2887 5055
2887 5977
2887 6259
2887 6989
2887 7289
2887 7642
2887 8284
2887 8618
2888 5056
2888 5978
2888 6260
2888 6990
2888 7290
2888 7643
2888 8285
2888 8619
2889 5057
2889 5979
2889 6261
2889 6991
2889 7291
2889 7644
2889 8286
2889 8620
2890 5058
2890 5980
2890 6262
2890 6992
2890 7292
2890 7645
2890 8287
2890 8621
2891 5059
2891 5981
2891 6263
2891 6993
2891 7293
2891 7646
2891 8288
2891 8622
2892 5060
2892 5982
2892 6264
2892 6994
2892 7294
2892 7647
2892 8289
2892 8623
2893 5061
2893 5983
2893 6265
2893 6995
2893 7295
2893 7648
2893 8290
2893 8624
2894 5062
2894 5984
2894 6266
2894 6996
2894 7296
2894 7649
2894 8291
2894 8625
2895 5063
2895 5985
2895 6267
2895 6997
2895 7297
2895 7650
2895 8292
2895 8626
2896 5064
2896 5986
2896 6268
2896 6998
2896 7298
2896 7651
2896 8293
2896 8627
2897 5065
2897 5987
2897 6269
2897 6999
2897 7299
2897 7652
2897 8294
2897 8628
2898 5066
2898 5988
2898 6270
2898 7000
2898 7300
2898 7653
2898 8295
2898 8629
2899 5067
2899 5989
2899 6271
2899 7001
2899 7301
2899 7654
2899 8296
2899 8630
2900 5068
2900 5990
2900 6272
2900 7002
2900 7302
2900 7655
2900 8297
2900 8631
2901 5069
2901 5991
2901 6273
2901 7003
2901 7303
2901 7656
2901 8298
2901 8632
2902 5070
2902 5992
2902 6274
2902 7004
2902 7304
2902 7657
2902 8299
2902 8633
2903 5071
2903 5993
2903 6275
2903 7005
2903 7305
2903 7658
2903 8300
2903 8634
2904 5072
2904 5994
2904 6276
2904 7006
2904 7306
2904 7659
2904 8301
2904 8635
2905 5073
2905 5995
2905 6277
2905 7007
2905 7307
2905 7660
2905 8302
2905 8636
2906 5074
2906 5996
2906 6278
2906 7008
2906 7308
2906 7498
2906 8303
2906 8637
2907 5075
2907 5997
2907 6279
2907 6846
2907 7309
2907 7499
2907 8304
2907 8638
2908 5076
2908 5998
2908 6280
2908 6847
2908 7310
2908 7500
2908 8305
2908 8476
2909 5077
2909 5999
2909 6281
2909 6848
2909 7311
2909 7501
2909 8306
2909 8477
2910 5078
2910 6000
2910 6282
2910 6849
2910 7312
2910 7502
2910 8307
2910 8478
2911 5079
2911 6001
2911 6283
2911 6850
2911 7313
2911 7503
2911 8308
2911 8479
2912 5080
2912 6002
2912 6284
2912 6851
2912 7314
2912 7504
2912 8309
2912 8480
2913 5081
2913 6003
2913 6285
2913 6852
2913 7315
2913 7505
2913 8310
2913 8481
2914 5082
2914 6004
2914 6286
2914 6853
2914 7316
2914 7506
2914 8311
2914 8482
2915 5083
2915 6005
2915 6287
2915 6854
2915 7317
2915 7507
2915 8312
2915 8483
2916 5084
2916 6006
2916 6288
2916 6855
2916 7318
2916 7508
2916 8150
2916 8484
2917 5085
2917 6007
2917 6289
2917 6856
2917 7319
2917 7509
2917 8151
2917 8485
2918 5086
2918 6008
2918 6290
2918 6857
2918 7320
2918 7510
2918 8152
2918 8486
2919 5087
2919 6009
2919 6291
2919 6858
2919 7321
2919 7511
2919 8153
2919 8487
2920 5088
2920 6010
2920 6292
2920 6859
2920 7322
2920 7512
2920 8154
2920 8488
2921 5089
2921 6011
2921 6293
2921 6860
2921 7323
2921 7513
2921 8155
2921 8489
2922 5090
2922 6012
2922 6294
2922 6861
2922 7324
2922 7514
2922 8156
2922 8490
2923 5091
2923 6013
2923 6295
2923 6862
2923 7325
2923 7515
2923 8157
2923 8491
2924 5092
2924 6014
2924 6296
2924 6863
2924 7326
2924 7516
2924 8158
2924 8492
2925 5093
2925 6015
2925 6297
2925 6864
2925 7327
2925 7517
2925 8159
2925 8493
2926 5094
2926 6016
2926 6298
2926 6865
2926 7328
2926 7518
2926 8160
2926 8494
2927 5095
2927 6017
2927 6299
2927 6866
2927 7329
2927 7519
2927 8161
2927 8495
2928 5096
2928 6018
2928 6300
2928 6867
2928 7330
2928 7520
2928 8162
2928 8496
2929 5097
2929 6019
2929 6301
2929 6868
2929 7331
2929 7521
2929 8163
2929 8497
2930 5098
2930 6020
2930 6302
2930 6869
2930 7332
2930 7522
2930 8164
2930 8498
2931 5099
2931 6021
2931 6303
2931 6870
2931 7333
2931 7523
2931 8165
2931 8499
2932 5100
2932 6022
2932 6304
2932 6871
2932 7334
2932 7524
2932 8166
2932 8500
2933 5101
2933 6023
2933 6305
2933 6872
2933 7172
2933 7525
2933 8167
2933 8501
2934 5279
2934 6185
2934 6501
2934 7067
2934 7476
2934 7697
2934 8406
2934 8719
2935 5280
2935 6186
2935 6502
2935 7068
2935 7477
2935 7698
2935 8407
2935 8720
2936 5281
2936 6187
2936 6503
2936 7069
2936 7478
2936 7699
2936 8408
2936 8721
2937 5282
2937 6188
2937 6504
2937 7070
2937 7479
2937 7700
2937 8409
2937 8722
2938 5283
2938 6189
2938 6505
2938 7071
2938 7480
2938 7701
2938 8410
2938 8723
2939 5284
2939 6190
2939 6506
2939 7072
2939 7481
2939 7702
2939 8411
2939 8724
2940 5285
2940 6191
2940 6507
2940 7073
2940 7482
2940 7703
2940 8412
2940 8725
2941 5286
2941 6192
2941 6508
2941 7074
2941 7483
2941 7704
2941 8413
2941 8726
2942 5287
2942 6193
2942 6509
2942 7075
2942 7484
2942 7705
2942 8414
2942 8727
2943 5288
2943 6031
2943 6510
2943 7076
2943 7485
2943 7706
2943 8415
2943 8728
2944 5289
2944 6032
2944 6511
2944 7077
2944 7486
2944 7707
2944 8416
2944 8729
2945 5290
2945 6033
2945 6512
2945 7078
2945 7487
2945 7708
2945 8417
2945 8730
2946 5291
2946 6034
2946 6513
2946 7079
2946 7488
2946 7709
2946 8418
2946 8731
2947 5292
2947 6035
2947 6514
2947 7080
2947 7489
2947 7710
2947 8419
2947 8732
2948 5293
2948 6036
2948 6515
2948 7081
2948 7490
2948 7711
2948 8420
2948 8733
2949 5294
2949 6037
2949 6516
2949 7082
2949 7491
2949 7712
2949 8421
2949 8734
2950 5295
2950 6038
2950 6517
2950 7083
2950 7492
2950 7713
2950 8422
2950 8735
2951 5296
2951 6039
2951 6518
2951 7084
2951 7493
2951 7714
2951 8423
2951 8736
2952 5297
2952 6040
2952 6519
2952 7085
2952 7494
2952 7715
2952 8424
2952 8737
2953 5298
2953 6041
2953 6357
2953 7086
2953 7495
2953 7716
2953 8425
2953 8738
2954 5299
2954 6042
2954 6358
2954 7087
2954 7496
2954 7717
2954 8426
2954 8739
2955 5300
2955 6043
2955 6359
2955 7088
2955 7497
2955 7718
2955 8427
2955 8740
2956 5301
2956 6044
2956 6360
2956 7089
2956 7335
2956 7719
2956 8428
2956 8741
2957 5302
2957 6045
2957 6361
2957 7090
2957 7336
2957 7720
2957 8429
2957 8742
2958 5303
2958 6046
2958 6362
2958 7091
2958 7337
2958 7721
2958 8430
2958 8743
2959 5304
2959 6047
2959 6363
2959 7092
2959 7338
2959 7722
2959 8431
2959 8744
2960 5305
2960 6048
2960 6364
2960 7093
2960 7339
2960 7723
2960 8432
2960 8745
2961 5306
2961 6049
2961 6365
2961 7094
2961 7340
2961 7724
2961 8433
2961 8746
2962 5307
2962 6050
2962 6366
2962 7095
2962 7341
2962 7725
2962 8434
2962 8747
2963 5308
2963 6051
2963 6367
2963 7096
2963 7342
2963 7726
2963 8435
2963 8748
2964 5309
2964 6052
2964 6368
2964 7097
2964 7343
2964 7727
2964 8436
2964 8749
2965 5310
2965 6053
2965 6369
2965 7098
2965 7344
2965 7728
2965 8437
2965 8750
2966 5311
2966 6054
2966 6370
2966 7099
2966 7345
2966 7729
2966 8438
2966 8751
2967 5312
2967 6055
2967 6371
2967 7100
2967 7346
2967 7730
2967 8439
2967 8752
2968 5313
2968 6056
2968 6372
2968 7101
2968 7347
2968 7731
2968 8440
2968 8753
2969 5314
2969 6057
2969 6373
2969 7102
2969 7348
2969 7732
2969 8441
2969 8754
2970 5315
2970 6058
2970 6374
2970 7103
2970 7349
2970 7733
2970 8442
2970 8755
2971 5316
2971 6059
2971 6375
2971 7104
2971 7350
2971 7734
2971 8443
2971 8756
2972 5317
2972 6060
2972 6376
2972 7105
2972 7351
2972 7735
2972 8444
2972 8757
2973 5318
2973 6061
2973 6377
2973 7106
2973 7352
2973 7736
2973 8445
2973 8758
2974 5319
2974 6062
2974 6378
2974 7107
2974 7353
2974 7737
2974 8446
2974 8759
2975 5320
2975 6063
2975 6379
2975 7108
2975 7354
2975 7738
2975 8447
2975 8760
2976 5321
2976 6064
2976 6380
2976 7109
2976 7355
2976 7739
2976 8448
2976 8761
2977 5322
2977 6065
2977 6381
2977 7110
2977 7356
2977 7740
2977 8449
2977 8762
2978 5323
2978 6066
2978 6382
2978 7111
2978 7357
2978 7741
2978 8450
2978 8763
2979 5324
2979 6067
2979 6383
2979 7112
2979 7358
2979 7742
2979 8451
2979 8764
2980 5325
2980 6068
2980 6384
2980 7113
2980 7359
2980 7743
2980 8452
2980 8765
2981 5326
2981 6069
2981 6385
2981 7114
2981 7360
2981 7744
2981 8453
2981 8766
2982 5327
2982 6070
2982 6386
2982 7115
2982 7361
2982 7745
2982 8454
2982 8767
2983 5328
2983 6071
2983 6387
2983 7116
2983 7362
2983 7746
2983 8455
2983 8768
2984 5329
2984 6072
2984 6388
2984 7117
2984 7363
2984 7747
2984 8456
2984 8769
2985 5330
2985 6073
2985 6389
2985 7118
2985 7364
2985 7748
2985 8457
2985 8770
2986 5331
2986 6074
2986 6390
2986 7119
2986 7365
2986 7749
2986 8458
2986 8771
2987 5332
2987 6075
2987 6391
2987 7120
2987 7366
2987 7750
2987 8459
2987 8772
2988 5333
2988 6076
2988 6392
2988 7121
2988 7367
2988 7751
2988 8460
2988 8773
2989 5334
2989 6077
2989 6393
2989 7122
2989 7368
2989 7752
2989 8461
2989 8774
2990 5335
2990 6078
2990 6394
2990 7123
2990 7369
2990 7753
2990 8462
2990 8775
2991 5336
2991 6079
2991 6395
2991 7124
2991 7370
2991 7754
2991 8463
2991 8776
2992 5337
2992 6080
2992 6396
2992 7125
2992 7371
2992 7755
2992 8464
2992 8777
2993 5338
2993 6081
2993 6397
2993 7126
2993 7372
2993 7756
2993 8465
2993 8778
2994 5339
2994 6082
2994 6398
2994 7127
2994 7373
2994 7757
2994 8466
2994 8779
2995 5340
2995 6083
2995 6399
2995 7128
2995 7374
2995 7758
2995 8467
2995 8780
2996 5341
2996 6084
2996 6400
2996 7129
2996 7375
2996 7759
2996 8468
2996 8781
2997 5342
2997 6085
2997 6401
2997 7130
2997 7376
2997 7760
2997 8469
2997 8782
2998 5343
2998 6086
2998 6402
2998 7131
2998 7377
2998 7761
2998 8470
2998 8783
2999 5344
2999 6087
2999 6403
2999 7132
2999 7378
2999 7762
2999 8471
2999 8784
3000 5345
3000 6088
3000 6404
3000 7133
3000 7379
3000 7763
3000 8472
3000 8785
3001 5346
3001 6089
3001 6405
3001 7134
3001 7380
3001 7764
3001 8473
3001 8786
3002 5347
3002 6090
3002 6406
3002 7135
3002 7381
3002 7765
3002 8474
3002 8787
3003 5348
3003 6091
3003 6407
3003 7136
3003 7382
3003 7766
3003 8475
3003 8788
3004 5349
3004 6092
3004 6408
3004 7137
3004 7383
3004 7767
3004 8313
3004 8789
3005 5350
3005 6093
3005 6409
3005 7138
3005 7384
3005 7768
3005 8314
3005 8790
3006 5351
3006 6094
3006 6410
3006 7139
3006 7385
3006 7769
3006 8315
3006 8791
3007 5352
3007 6095
3007 6411
3007 7140
3007 7386
3007 7770
3007 8316
3007 8792
3008 5353
3008 6096
3008 6412
3008 7141
3008 7387
3008 7771
3008 8317
3008 8793
3009 5354
3009 6097
3009 6413
3009 7142
3009 7388
3009 7772
3009 8318
3009 8794
3010 5355
3010 6098
3010 6414
3010 7143
3010 7389
3010 7773
3010 8319
3010 8795
3011 5356
3011 6099
3011 6415
3011 7144
3011 7390
3011 7774
3011 8320
3011 8796
3012 5357
3012 6100
3012 6416
3012 7145
3012 7391
3012 7775
3012 8321
3012 8797
3013 5358
3013 6101
3013 6417
3013 7146
3013 7392
3013 7776
3013 8322
3013 8798
3014 5359
3014 6102
3014 6418
3014 7147
3014 7393
3014 7777
3014 8323
3014 8799
3015 5360
3015 6103
3015 6419
3015 7148
3015 7394
3015 7778
3015 8324
3015 8800
3016 5361
3016 6104
3016 6420
3016 7149
3016 7395
3016 7779
3016 8325
3016 8801
3017 5362
3017 6105
3017 6421
3017 7150
3017 7396
3017 7780
3017 8326
3017 8639
3018 5363
3018 6106
3018 6422
3018 7151
3018 7397
3018 7781
3018 8327
3018 8640
3019 5364
3019 6107
3019 6423
3019 7152
3019 7398
3019 7782
3019 8328
3019 8641
3020 5365
3020 6108
3020 6424
3020 7153
3020 7399
3020 7783
3020 8329
3020 8642
3021 5366
3021 6109
3021 6425
3021 7154
3021 7400
3021 7784
3021 8330
3021 8643
3022 5367
3022 6110
3022 6426
3022 7155
3022 7401
3022 7785
3022 8331
3022 8644
3023 5368
3023 6111
3023 6427
3023 7156
3023 7402
3023 7786
3023 8332
3023 8645
3024 5369
3024 6112
3024 6428
3024 7157
3024 7403
3024 7787
3024 8333
3024 8646
3025 5370
3025 6113
3025 6429
3025 7158
3025 7404
3025 7788
3025 8334
3025 8647
3026 5371
3026 6114
3026 6430
3026 7159
3026 7405
3026 7789
3026 8335
3026 8648
3027 5372
3027 6115
3027 6431
3027 7160
3027 7406
3027 7790
3027 8336
3027 8649
3028 5373
3028 6116
3028 6432
3028 7161
3028 7407
3028 7791
3028 8337
3028 8650
3029 5374
3029 6117
3029 6433
3029 7162
3029 7408
3029 7792
3029 8338
3029 8651
3030 5375
3030 6118
3030 6434
3030 7163
3030 7409
3030 7793
3030 8339
3030 8652
3031 5376
3031 6119
3031 6435
3031 7164
3031 7410
3031 7794
3031 8340
3031 8653
3032 5377
3032 6120
3032 6436
3032 7165
3032 7411
3032 7795
3032 8341
3032 8654
3033 5378
3033 6121
3033 6437
3033 7166
3033 7412
3033 7796
3033 8342
3033 8655
3034 5216
3034 6122
3034 6438
3034 7167
3034 7413
3034 7797
3034 8343
3034 8656
3035 5217
3035 6123
3035 6439
3035 7168
3035 7414
3035 7798
3035 8344
3035 8657
3036 5218
3036 6124
3036 6440
3036 7169
3036 7415
3036 7799
3036 8345
3036 8658
3037 5219
3037 6125
3037 6441
3037 7170
3037 7416
3037 7800
3037 8346
3037 8659
3038 5220
3038 6126
3038 6442
3038 7171
3038 7417
3038 7801
3038 8347
3038 8660
3039 5221
3039 6127
3039 6443
3039 7009
3039 7418
3039 7802
3039 8348
3039 8661
3040 5222
3040 6128
3040 6444
3040 7010
3040 7419
3040 7803
3040 8349
3040 8662
3041 5223
3041 6129
3041 6445
3041 7011
3041 7420
3041 7804
3041 8350
3041 8663
3042 5224
3042 6130
3042 6446
3042 7012
3042 7421
3042 7805
3042 8351
3042 8664
3043 5225
3043 6131
3043 6447
3043 7013
3043 7422
3043 7806
3043 8352
3043 8665
3044 5226
3044 6132
3044 6448
3044 7014
3044 7423
3044 7807
3044 8353
3044 8666
3045 5227
3045 6133
3045 6449
3045 7015
3045 7424
3045 7808
3045 8354
3045 8667
3046 5228
3046 6134
3046 6450
3046 7016
3046 7425
3046 7809
3046 8355
3046 8668
3047 5229
3047 6135
3047 6451
3047 7017
3047 7426
3047 7810
3047 8356
3047 8669
3048 5230
3048 6136
3048 6452
3048 7018
3048 7427
3048 7811
3048 8357
3048 8670
3049 5231
3049 6137
3049 6453
3049 7019
3049 7428
3049 7812
3049 8358
3049 8671
3050 5232
3050 6138
3050 6454
3050 7020
3050 7429
3050 7813
3050 8359
3050 8672
3051 5233
3051 6139
3051 6455
3051 7021
3051 7430
3051 7814
3051 8360
3051 8673
3052 5234
3052 6140
3052 6456
3052 7022
3052 7431
3052 7815
3052 8361
3052 8674
3053 5235
3053 6141
3053 6457
3053 7023
3053 7432
3053 7816
3053 8362
3053 8675
3054 5236
3054 6142
3054 6458
3054 7024
3054 7433
3054 7817
3054 8363
3054 8676
3055 5237
3055 6143
3055 6459
3055 7025
3055 7434
3055 7818
3055 8364
3055 8677
3056 5238
3056 6144
3056 6460
3056 7026
3056 7435
3056 7819
3056 8365
3056 8678
3057 5239
3057 6145
3057 6461
3057 7027
3057 7436
3057 7820
3057 8366
3057 8679
3058 5240
3058 6146
3058 6462
3058 7028
3058 7437
3058 7821
3058 8367
3058 8680
3059 5241
3059 6147
3059 6463
3059 7029
3059 7438
3059 7822
3059 8368
3059 8681
3060 5242
3060 6148
3060 6464
3060 7030
3060 7439
3060 7823
3060 8369
3060 8682
3061 5243
3061 6149
3061 6465
3061 7031
3061 7440
3061 7661
3061 8370
3061 8683
3062 5244
3062 6150
3062 6466
3062 7032
3062 7441
3062 7662
3062 8371
3062 8684
3063 5245
3063 6151
3063 6467
3063 7033
3063 7442
3063 7663
3063 8372
3063 8685
3064 5246
3064 6152
3064 6468
3064 7034
3064 7443
3064 7664
3064 8373
3064 8686
3065 5247
3065 6153
3065 6469
3065 7035
3065 7444
3065 7665
3065 8374
3065 8687
3066 5248
3066 6154
3066 6470
3066 7036
3066 7445
3066 7666
3066 8375
3066 8688
3067 5249
3067 6155
3067 6471
3067 7037
3067 7446
3067 7667
3067 8376
3067 8689
3068 5250
3068 6156
3068 6472
3068 7038
3068 7447
3068 7668
3068 8377
3068 8690
3069 5251
3069 6157
3069 6473
3069 7039
3069 7448
3069 7669
3069 8378
3069 8691
3070 5252
3070 6158
3070 6474
3070 7040
3070 7449
3070 7670
3070 8379
3070 8692
3071 5253
3071 6159
3071 6475
3071 7041
3071 7450
3071 7671
3071 8380
3071 8693
3072 5254
3072 6160
3072 6476
3072 7042
3072 7451
3072 7672
3072 8381
3072 8694
3073 5255
3073 6161
3073 6477
3073 7043
3073 7452
3073 7673
3073 8382
3073 8695
3074 5256
3074 6162
3074 6478
3074 7044
3074 7453
3074 7674
3074 8383
3074 8696
3075 5257
3075 6163
3075 6479
3075 7045
3075 7454
3075 7675
3075 8384
3075 8697
3076 5258
3076 6164
3076 6480
3076 7046
3076 7455
3076 7676
3076 8385
3076 8698
3077 5259
3077 6165
3077 6481
3077 7047
3077 7456
3077 7677
3077 8386
3077 8699
3078 5260
3078 6166
3078 6482
3078 7048
3078 7457
3078 7678
3078 8387
3078 8700
3079 5261
3079 6167
3079 6483
3079 7049
3079 7458
3079 7679
3079 8388
3079 8701
3080 5262
3080 6168
3080 6484
3080 7050
3080 7459
3080 7680
3080 8389
3080 8702
3081 5263
3081 6169
3081 6485
3081 7051
3081 7460
3081 7681
3081 8390
3081 8703
3082 5264
3082 6170
3082 6486
3082 7052
3082 7461
3082 7682
3082 8391
3082 8704
3083 5265
3083 6171
3083 6487
3083 7053
3083 7462
3083 7683
3083 8392
3083 8705
3084 5266
3084 6172
3084 6488
3084 7054
3084 7463
3084 7684
3084 8393
3084 8706
3085 5267
3085 6173
3085 6489
3085 7055
3085 7464
3085 7685
3085 8394
3085 8707
3086 5268
3086 6174
3086 6490
3086 7056
3086 7465
3086 7686
3086 8395
3086 8708
3087 5269
3087 6175
3087 6491
3087 7057
3087 7466
3087 7687
3087 8396
3087 8709
3088 5270
3088 6176
3088 6492
3088 7058
3088 7467
3088 7688
3088 8397
3088 8710
3089 5271
3089 6177
3089 6493
3089 7059
3089 7468
3089 7689
3089 8398
3089 8711
3090 5272
3090 6178
3090 6494
3090 7060
3090 7469
3090 7690
3090 8399
3090 8712
3091 5273
3091 6179
3091 6495
3091 7061
3091 7470
3091 7691
3091 8400
3091 8713
3092 5274
3092 6180
3092 6496
3092 7062
3092 7471
3092 7692
3092 8401
3092 8714
3093 5275
3093 6181
3093 6497
3093 7063
3093 7472
3093 7693
3093 8402
3093 8715
3094 5276
3094 6182
3094 6498
3094 7064
3094 7473
3094 7694
3094 8403
3094 8716
3095 5277
3095 6183
3095 6499
3095 7065
3095 7474
3095 7695
3095 8404
3095 8717
3096 5278
3096 6184
3096 6500
3096 7066
3096 7475
3096 7696
3096 8405
3096 8718
3097 5460
3097 6229
3097 6612
3097 7200
3097 7656
3097 7847
3097 8549
3098 5461
3098 6230
3098 6613
3098 7201
3098 7657
3098 7848
3098 8550
3099 5462
3099 6231
3099 6614
3099 7202
3099 7658
3099 7849
3099 8551
3100 5463
3100 6232
3100 6615
3100 7203
3100 7659
3100 7850
3100 8552
3101 5464
3101 6233
3101 6616
3101 7204
3101 7660
3101 7851
3101 8553
3102 5465
3102 6234
3102 6617
3102 7205
3102 7498
3102 7852
3102 8554
3103 5466
3103 6235
3103 6618
3103 7206
3103 7499
3103 7853
3103 8555
3104 5467
3104 6236
3104 6619
3104 7207
3104 7500
3104 7854
3104 8556
3105 5468
3105 6237
3105 6620
3105 7208
3105 7501
3105 7855
3105 8557
3106 5469
3106 6238
3106 6621
3106 7209
3106 7502
3106 7856
3106 8558
3107 5470
3107 6239
3107 6622
3107 7210
3107 7503
3107 7857
3107 8559
3108 5471
3108 6240
3108 6623
3108 7211
3108 7504
3108 7858
3108 8560
3109 5472
3109 6241
3109 6624
3109 7212
3109 7505
3109 7859
3109 8561
3110 5473
3110 6242
3110 6625
3110 7213
3110 7506
3110 7860
3110 8562
3111 5474
3111 6243
3111 6626
3111 7214
3111 7507
3111 7861
3111 8563
3112 5475
3112 6244
3112 6627
3112 7215
3112 7508
3112 7862
3112 8564
3113 5476
3113 6245
3113 6628
3113 7216
3113 7509
3113 7863
3113 8565
3114 5477
3114 6246
3114 6629
3114 7217
3114 7510
3114 7864
3114 8566
3115 5478
3115 6247
3115 6630
3115 7218
3115 7511
3115 7865
3115 8567
3116 5479
3116 6248
3116 6631
3116 7219
3116 7512
3116 7866
3116 8568
3117 5480
3117 6249
3117 6632
3117 7220
3117 7513
3117 7867
3117 8569
3118 5481
3118 6250
3118 6633
3118 7221
3118 7514
3118 7868
3118 8570
3119 5482
3119 6251
3119 6634
3119 7222
3119 7515
3119 7869
3119 8571
3120 5483
3120 6252
3120 6635
3120 7223
3120 7516
3120 7870
3120 8572
3121 5484
3121 6253
3121 6636
3121 7224
3121 7517
3121 7871
3121 8573
3122 5485
3122 6254
3122 6637
3122 7225
3122 7518
3122 7872
3122 8574
3123 5486
3123 6255
3123 6638
3123 7226
3123 7519
3123 7873
3123 8575
3124 5487
3124 6256
3124 6639
3124 7227
3124 7520
3124 7874
3124 8576
3125 5488
3125 6257
3125 6640
3125 7228
3125 7521
3125 7875
3125 8577
3126 5489
3126 6258
3126 6641
3126 7229
3126 7522
3126 7876
3126 8578
3127 5490
3127 6259
3127 6642
3127 7230
3127 7523
3127 7877
3127 8579
3128 5491
3128 6260
3128 6643
3128 7231
3128 7524
3128 7878
3128 8580
3129 5492
3129 6261
3129 6644
3129 7232
3129 7525
3129 7879
3129 8581
3130 5493
3130 6262
3130 6645
3130 7233
3130 7526
3130 7880
3130 8582
3131 5494
3131 6263
3131 6646
3131 7234
3131 7527
3131 7881
3131 8583
3132 5495
3132 6264
3132 6647
3132 7235
3132 7528
3132 7882
3132 8584
3133 5496
3133 6265
3133 6648
3133 7236
3133 7529
3133 7883
3133 8585
3134 5497
3134 6266
3134 6649
3134 7237
3134 7530
3134 7884
3134 8586
3135 5498
3135 6267
3135 6650
3135 7238
3135 7531
3135 7885
3135 8587
3136 5499
3136 6268
3136 6651
3136 7239
3136 7532
3136 7886
3136 8588
3137 5500
3137 6269
3137 6652
3137 7240
3137 7533
3137 7887
3137 8589
3138 5501
3138 6270
3138 6653
3138 7241
3138 7534
3138 7888
3138 8590
3139 5502
3139 6271
3139 6654
3139 7242
3139 7535
3139 7889
3139 8591
3140 5503
3140 6272
3140 6655
3140 7243
3140 7536
3140 7890
3140 8592
3141 5504
3141 6273
3141 6656
3141 7244
3141 7537
3141 7891
3141 8593
3142 5505
3142 6274
3142 6657
3142 7245
3142 7538
3142 7892
3142 8594
3143 5506
3143 6275
3143 6658
3143 7246
3143 7539
3143 7893
3143 8595
3144 5507
3144 6276
3144 6659
3144 7247
3144 7540
3144 7894
3144 8596
3145 5508
3145 6277
3145 6660
3145 7248
3145 7541
3145 7895
3145 8597
3146 5509
3146 6278
3146 6661
3146 7249
3146 7542
3146 7896
3146 8598
3147 5510
3147 6279
3147 6662
3147 7250
3147 7543
3147 7897
3147 8599
3148 5511
3148 6280
3148 6663
3148 7251
3148 7544
3148 7898
3148 8600
3149 5512
3149 6281
3149 6664
3149 7252
3149 7545
3149 7899
3149 8601
3150 5513
3150 6282
3150 6665
3150 7253
3150 7546
3150 7900
3150 8602
3151 5514
3151 6283
3151 6666
3151 7254
3151 7547
3151 7901
3151 8603
3152 5515
3152 6284
3152 6667
3152 7255
3152 7548
3152 7902
3152 8604
3153 5516
3153 6285
3153 6668
3153 7256
3153 7549
3153 7903
3153 8605
3154 5517
3154 6286
3154 6669
3154 7257
3154 7550
3154 7904
3154 8606
3155 5518
3155 6287
3155 6670
3155 7258
3155 7551
3155 7905
3155 8607
3156 5519
3156 6288
3156 6671
3156 7259
3156 7552
3156 7906
3156 8608
3157 5520
3157 6289
3157 6672
3157 7260
3157 7553
3157 7907
3157 8609
3158 5521
3158 6290
3158 6673
3158 7261
3158 7554
3158 7908
3158 8610
3159 5522
3159 6291
3159 6674
3159 7262
3159 7555
3159 7909
3159 8611
3160 5523
3160 6292
3160 6675
3160 7263
3160 7556
3160 7910
3160 8612
3161 5524
3161 6293
3161 6676
3161 7264
3161 7557
3161 7911
3161 8613
3162 5525
3162 6294
3162 6677
3162 7265
3162 7558
3162 7912
3162 8614
3163 5526
3163 6295
3163 6678
3163 7266
3163 7559
3163 7913
3163 8615
3164 5527
3164 6296
3164 6679
3164 7267
3164 7560
3164 7914
3164 8616
3165 5528
3165 6297
3165 6680
3165 7268
3165 7561
3165 7915
3165 8617
3166 5529
3166 6298
3166 6681
3166 7269
3166 7562
3166 7916
3166 8618
3167 5530
3167 6299
3167 6682
3167 7270
3167 7563
3167 7917
3167 8619
3168 5531
3168 6300
3168 6520
3168 7271
3168 7564
3168 7918
3168 8620
3169 5532
3169 6301
3169 6521
3169 7272
3169 7565
3169 7919
3169 8621
3170 5533
3170 6302
3170 6522
3170 7273
3170 7566
3170 7920
3170 8622
3171 5534
3171 6303
3171 6523
3171 7274
3171 7567
3171 7921
3171 8623
3172 5535
3172 6304
3172 6524
3172 7275
3172 7568
3172 7922
3172 8624
3173 5536
3173 6305
3173 6525
3173 7276
3173 7569
3173 7923
3173 8625
3174 5537
3174 6306
3174 6526
3174 7277
3174 7570
3174 7924
3174 8626
3175 5538
3175 6307
3175 6527
3175 7278
3175 7571
3175 7925
3175 8627
3176 5539
3176 6308
3176 6528
3176 7279
3176 7572
3176 7926
3176 8628
3177 5540
3177 6309
3177 6529
3177 7280
3177 7573
3177 7927
3177 8629
3178 5541
3178 6310
3178 6530
3178 7281
3178 7574
3178 7928
3178 8630
3179 5379
3179 6311
3179 6531
3179 7282
3179 7575
3179 7929
3179 8631
3180 5380
3180 6312
3180 6532
3180 7283
3180 7576
3180 7930
3180 8632
3181 5381
3181 6313
3181 6533
3181 7284
3181 7577
3181 7931
3181 8633
3182 5382
3182 6314
3182 6534
3182 7285
3182 7578
3182 7932
3182 8634
3183 5383
3183 6315
3183 6535
3183 7286
3183 7579
3183 7933
3183 8635
3184 5384
3184 6316
3184 6536
3184 7287
3184 7580
3184 7934
3184 8636
3185 5385
3185 6317
3185 6537
3185 7288
3185 7581
3185 7935
3185 8637
3186 5386
3186 6318
3186 6538
3186 7289
3186 7582
3186 7936
3186 8638
3187 5387
3187 6319
3187 6539
3187 7290
3187 7583
3187 7937
3187 8476
3188 5388
3188 6320
3188 6540
3188 7291
3188 7584
3188 7938
3188 8477
3189 5389
3189 6321
3189 6541
3189 7292
3189 7585
3189 7939
3189 8478
3190 5390
3190 6322
3190 6542
3190 7293
3190 7586
3190 7940
3190 8479
3191 5391
3191 6323
3191 6543
3191 7294
3191 7587
3191 7941
3191 8480
3192 5392
3192 6324
3192 6544
3192 7295
3192 7588
3192 7942
3192 8481
3193 5393
3193 6325
3193 6545
3193 7296
3193 7589
3193 7943
3193 8482
3194 5394
3194 6326
3194 6546
3194 7297
3194 7590
3194 7944
3194 8483
3195 5395
3195 6327
3195 6547
3195 7298
3195 7591
3195 7945
3195 8484
3196 5396
3196 6328
3196 6548
3196 7299
3196 7592
3196 7946
3196 8485
3197 5397
3197 6329
3197 6549
3197 7300
3197 7593
3197 7947
3197 8486
3198 5398
3198 6330
3198 6550
3198 7301
3198 7594
3198 7948
3198 8487
3199 5399
3199 6331
3199 6551
3199 7302
3199 7595
3199 7949
3199 8488
3200 5400
3200 6332
3200 6552
3200 7303
3200 7596
3200 7950
3200 8489
3201 5401
3201 6333
3201 6553
3201 7304
3201 7597
3201 7951
3201 8490
3202 5402
3202 6334
3202 6554
3202 7305
3202 7598
3202 7952
3202 8491
3203 5403
3203 6335
3203 6555
3203 7306
3203 7599
3203 7953
3203 8492
3204 5404
3204 6336
3204 6556
3204 7307
3204 7600
3204 7954
3204 8493
3205 5405
3205 6337
3205 6557
3205 7308
3205 7601
3205 7955
3205 8494
3206 5406
3206 6338
3206 6558
3206 7309
3206 7602
3206 7956
3206 8495
3207 5407
3207 6339
3207 6559
3207 7310
3207 7603
3207 7957
3207 8496
3208 5408
3208 6340
3208 6560
3208 7311
3208 7604
3208 7958
3208 8497
3209 5409
3209 6341
3209 6561
3209 7312
3209 7605
3209 7959
3209 8498
3210 5410
3210 6342
3210 6562
3210 7313
3210 7606
3210 7960
3210 8499
3211 5411
3211 6343
3211 6563
3211 7314
3211 7607
3211 7961
3211 8500
3212 5412
3212 6344
3212 6564
3212 7315
3212 7608
3212 7962
3212 8501
3213 5413
3213 6345
3213 6565
3213 7316
3213 7609
3213 7963
3213 8502
3214 5414
3214 6346
3214 6566
3214 7317
3214 7610
3214 7964
3214 8503
3215 5415
3215 6347
3215 6567
3215 7318
3215 7611
3215 7965
3215 8504
3216 5416
3216 6348
3216 6568
3216 7319
3216 7612
3216 7966
3216 8505
3217 5417
3217 6349
3217 6569
3217 7320
3217 7613
3217 7967
3217 8506
3218 5418
3218 6350
3218 6570
3218 7321
3218 7614
3218 7968
3218 8507
3219 5419
3219 6351
3219 6571
3219 7322
3219 7615
3219 7969
3219 8508
3220 5420
3220 6352
3220 6572
3220 7323
3220 7616
3220 7970
3220 8509
3221 5421
3221 6353
3221 6573
3221 7324
3221 7617
3221 7971
3221 8510
3222 5422
3222 6354
3222 6574
3222 7325
3222 7618
3222 7972
3222 8511
3223 5423
3223 6355
3223 6575
3223 7326
3223 7619
3223 7973
3223 8512
3224 5424
3224 6356
3224 6576
3224 7327
3224 7620
3224 7974
3224 8513
3225 5425
3225 6194
3225 6577
3225 7328
3225 7621
3225 7975
3225 8514
3226 5426
3226 6195
3226 6578
3226 7329
3226 7622
3226 7976
3226 8515
3227 5427
3227 6196
3227 6579
3227 7330
3227 7623
3227 7977
3227 8516
3228 5428
3228 6197
3228 6580
3228 7331
3228 7624
3228 7978
3228 8517
3229 5429
3229 6198
3229 6581
3229 7332
3229 7625
3229 7979
3229 8518
3230 5430
3230 6199
3230 6582
3230 7333
3230 7626
3230 7980
3230 8519
3231 5431
3231 6200
3231 6583
3231 7334
3231 7627
3231 7981
3231 8520
3232 5432
3232 6201
3232 6584
3232 7172
3232 7628
3232 7982
3232 8521
3233 5433
3233 6202
3233 6585
3233 7173
3233 7629
3233 7983
3233 8522
3234 5434
3234 6203
3234 6586
3234 7174
3234 7630
3234 7984
3234 8523
3235 5435
3235 6204
3235 6587
3235 7175
3235 7631
3235 7985
3235 8524
3236 5436
3236 6205
3236 6588
3236 7176
3236 7632
3236 7986
3236 8525
3237 5437
3237 6206
3237 6589
3237 7177
3237 7633
3237 7824
3237 8526
3238 5438
3238 6207
3238 6590
3238 7178
3238 7634
3238 7825
3238 8527
3239 5439
3239 6208
3239 6591
3239 7179
3239 7635
3239 7826
3239 8528
3240 5440
3240 6209
3240 6592
3240 7180
3240 7636
3240 7827
3240 8529
3241 5441
3241 6210
3241 6593
3241 7181
3241 7637
3241 7828
3241 8530
3242 5442
3242 6211
3242 6594
3242 7182
3242 7638
3242 7829
3242 8531
3243 5443
3243 6212
3243 6595
3243 7183
3243 7639
3243 7830
3243 8532
3244 5444
3244 6213
3244 6596
3244 7184
3244 7640
3244 7831
3244 8533
3245 5445
3245 6214
3245 6597
3245 7185
3245 7641
3245 7832
3245 8534
3246 5446
3246 6215
3246 6598
3246 7186
3246 7642
3246 7833
3246 8535
3247 5447
3247 6216
3247 6599
3247 7187
3247 7643
3247 7834
3247 8536
3248 5448
3248 6217
3248 6600
3248 7188
3248 7644
3248 7835
3248 8537
3249 5449
3249 6218
3249 6601
3249 7189
3249 7645
3249 7836
3249 8538
3250 5450
3250 6219
3250 6602
3250 7190
3250 7646
3250 7837
3250 8539
3251 5451
3251 6220
3251 6603
3251 7191
3251 7647
3251 7838
3251 8540
3252 5452
3252 6221
3252 6604
3252 7192
3252 7648
3252 7839
3252 8541
3253 5453
3253 6222
3253 6605
3253 7193
3253 7649
3253 7840
3253 8542
3254 5454
3254 6223
3254 6606
3254 7194
3254 7650
3254 7841
3254 8543
3255 5455
3255 6224
3255 6607
3255 7195
3255 7651
3255 7842
3255 8544
3256 5456
3256 6225
3256 6608
3256 7196
3256 7652
3256 7843
3256 8545
3257 5457
3257 6226
3257 6609
3257 7197
3257 7653
3257 7844
3257 8546
3258 5458
3258 6227
3258 6610
3258 7198
3258 7654
3258 7845
3258 8547
3259 5459
3259 6228
3259 6611
3259 7199
3259 7655
3259 7846
3259 8548
3260 5553
3260 6402
3260 6778
3260 7371
3260 7771
3260 8133
3260 8663
3261 5554
3261 6403
3261 6779
3261 7372
3261 7772
3261 8134
3261 8664
3262 5555
3262 6404
3262 6780
3262 7373
3262 7773
3262 8135
3262 8665
3263 5556
3263 6405
3263 6781
3263 7374
3263 7774
3263 8136
3263 8666
3264 5557
3264 6406
3264 6782
3264 7375
3264 7775
3264 8137
3264 8667
3265 5558
3265 6407
3265 6783
3265 7376
3265 7776
3265 8138
3265 8668
3266 5559
3266 6408
3266 6784
3266 7377
3266 7777
3266 8139
3266 8669
3267 5560
3267 6409
3267 6785
3267 7378
3267 7778
3267 8140
3267 8670
3268 5561
3268 6410
3268 6786
3268 7379
3268 7779
3268 8141
3268 8671
3269 5562
3269 6411
3269 6787
3269 7380
3269 7780
3269 8142
3269 8672
3270 5563
3270 6412
3270 6788
3270 7381
3270 7781
3270 8143
3270 8673
3271 5564
3271 6413
3271 6789
3271 7382
3271 7782
3271 8144
3271 8674
3272 5565
3272 6414
3272 6790
3272 7383
3272 7783
3272 8145
3272 8675
3273 5566
3273 6415
3273 6791
3273 7384
3273 7784
3273 8146
3273 8676
3274 5567
3274 6416
3274 6792
3274 7385
3274 7785
3274 8147
3274 8677
3275 5568
3275 6417
3275 6793
3275 7386
3275 7786
3275 8148
3275 8678
3276 5569
3276 6418
3276 6794
3276 7387
3276 7787
3276 8149
3276 8679
3277 5570
3277 6419
3277 6795
3277 7388
3277 7788
3277 7987
3277 8680
3278 5571
3278 6420
3278 6796
3278 7389
3278 7789
3278 7988
3278 8681
3279 5572
3279 6421
3279 6797
3279 7390
3279 7790
3279 7989
3279 8682
3280 5573
3280 6422
3280 6798
3280 7391
3280 7791
3280 7990
3280 8683
3281 5574
3281 6423
3281 6799
3281 7392
3281 7792
3281 7991
3281 8684
3282 5575
3282 6424
3282 6800
3282 7393
3282 7793
3282 7992
3282 8685
3283 5576
3283 6425
3283 6801
3283 7394
3283 7794
3283 7993
3283 8686
3284 5577
3284 6426
3284 6802
3284 7395
3284 7795
3284 7994
3284 8687
3285 5578
3285 6427
3285 6803
3285 7396
3285 7796
3285 7995
3285 8688
3286 5579
3286 6428
3286 6804
3286 7397
3286 7797
3286 7996
3286 8689
3287 5580
3287 6429
3287 6805
3287 7398
3287 7798
3287 7997
3287 8690
3288 5581
3288 6430
3288 6806
3288 7399
3288 7799
3288 7998
3288 8691
3289 5582
3289 6431
3289 6807
3289 7400
3289 7800
3289 7999
3289 8692
3290 5583
3290 6432
3290 6808
3290 7401
3290 7801
3290 8000
3290 8693
3291 5584
3291 6433
3291 6809
3291 7402
3291 7802
3291 8001
3291 8694
3292 5585
3292 6434
3292 6810
3292 7403
3292 7803
3292 8002
3292 8695
3293 5586
3293 6435
3293 6811
3293 7404
3293 7804
3293 8003
3293 8696
3294 5587
3294 6436
3294 6812
3294 7405
3294 7805
3294 8004
3294 8697
3295 5588
3295 6437
3295 6813
3295 7406
3295 7806
3295 8005
3295 8698
3296 5589
3296 6438
3296 6814
3296 7407
3296 7807
3296 8006
3296 8699
3297 5590
3297 6439
3297 6815
3297 7408
3297 7808
3297 8007
3297 8700
3298 5591
3298 6440
3298 6816
3298 7409
3298 7809
3298 8008
3298 8701
3299 5592
3299 6441
3299 6817
3299 7410
3299 7810
3299 8009
3299 8702
3300 5593
3300 6442
3300 6818
3300 7411
3300 7811
3300 8010
3300 8703
3301 5594
3301 6443
3301 6819
3301 7412
3301 7812
3301 8011
3301 8704
3302 5595
3302 6444
3302 6820
3302 7413
3302 7813
3302 8012
3302 8705
3303 5596
3303 6445
3303 6821
3303 7414
3303 7814
3303 8013
3303 8706
3304 5597
3304 6446
3304 6822
3304 7415
3304 7815
3304 8014
3304 8707
3305 5598
3305 6447
3305 6823
3305 7416
3305 7816
3305 8015
3305 8708
3306 5599
3306 6448
3306 6824
3306 7417
3306 7817
3306 8016
3306 8709
3307 5600
3307 6449
3307 6825
3307 7418
3307 7818
3307 8017
3307 8710
3308 5601
3308 6450
3308 6826
3308 7419
3308 7819
3308 8018
3308 8711
3309 5602
3309 6451
3309 6827
3309 7420
3309 7820
3309 8019
3309 8712
3310 5603
3310 6452
3310 6828
3310 7421
3310 7821
3310 8020
3310 8713
3311 5604
3311 6453
3311 6829
3311 7422
3311 7822
3311 8021
3311 8714
3312 5605
3312 6454
3312 6830
3312 7423
3312 7823
3312 8022
3312 8715
3313 5606
3313 6455
3313 6831
3313 7424
3313 7661
3313 8023
3313 8716
3314 5607
3314 6456
3314 6832
3314 7425
3314 7662
3314 8024
3314 8717
3315 5608
3315 6457
3315 6833
3315 7426
3315 7663
3315 8025
3315 8718
3316 5609
3316 6458
3316 6834
3316 7427
3316 7664
3316 8026
3316 8719
3317 5610
3317 6459
3317 6835
3317 7428
3317 7665
3317 8027
3317 8720
3318 5611
3318 6460
3318 6836
3318 7429
3318 7666
3318 8028
3318 8721
3319 5612
3319 6461
3319 6837
3319 7430
3319 7667
3319 8029
3319 8722
3320 5613
3320 6462
3320 6838
3320 7431
3320 7668
3320 8030
3320 8723
3321 5614
3321 6463
3321 6839
3321 7432
3321 7669
3321 8031
3321 8724
3322 5615
3322 6464
3322 6840
3322 7433
3322 7670
3322 8032
3322 8725
3323 5616
3323 6465
3323 6841
3323 7434
3323 7671
3323 8033
3323 8726
3324 5617
3324 6466
3324 6842
3324 7435
3324 7672
3324 8034
3324 8727
3325 5618
3325 6467
3325 6843
3325 7436
3325 7673
3325 8035
3325 8728
3326 5619
3326 6468
3326 6844
3326 7437
3326 7674
3326 8036
3326 8729
3327 5620
3327 6469
3327 6845
3327 7438
3327 7675
3327 8037
3327 8730
3328 5621
3328 6470
3328 6683
3328 7439
3328 7676
3328 8038
3328 8731
3329 5622
3329 6471
3329 6684
3329 7440
3329 7677
3329 8039
3329 8732
3330 5623
3330 6472
3330 6685
3330 7441
3330 7678
3330 8040
3330 8733
3331 5624
3331 6473
3331 6686
3331 7442
3331 7679
3331 8041
3331 8734
3332 5625
3332 6474
3332 6687
3332 7443
3332 7680
3332 8042
3332 8735
3333 5626
3333 6475
3333 6688
3333 7444
3333 7681
3333 8043
3333 8736
3334 5627
3334 6476
3334 6689
3334 7445
3334 7682
3334 8044
3334 8737
3335 5628
3335 6477
3335 6690
3335 7446
3335 7683
3335 8045
3335 8738
3336 5629
3336 6478
3336 6691
3336 7447
3336 7684
3336 8046
3336 8739
3337 5630
3337 6479
3337 6692
3337 7448
3337 7685
3337 8047
3337 8740
3338 5631
3338 6480
3338 6693
3338 7449
3338 7686
3338 8048
3338 8741
3339 5632
3339 6481
3339 6694
3339 7450
3339 7687
3339 8049
3339 8742
3340 5633
3340 6482
3340 6695
3340 7451
3340 7688
3340 8050
3340 8743
3341 5634
3341 6483
3341 6696
3341 7452
3341 7689
3341 8051
3341 8744
3342 5635
3342 6484
3342 6697
3342 7453
3342 7690
3342 8052
3342 8745
3343 5636
3343 6485
3343 6698
3343 7454
3343 7691
3343 8053
3343 8746
3344 5637
3344 6486
3344 6699
3344 7455
3344 7692
3344 8054
3344 8747
3345 5638
3345 6487
3345 6700
3345 7456
3345 7693
3345 8055
3345 8748
3346 5639
3346 6488
3346 6701
3346 7457
3346 7694
3346 8056
3346 8749
3347 5640
3347 6489
3347 6702
3347 7458
3347 7695
3347 8057
3347 8750
3348 5641
3348 6490
3348 6703
3348 7459
3348 7696
3348 8058
3348 8751
3349 5642
3349 6491
3349 6704
3349 7460
3349 7697
3349 8059
3349 8752
3350 5643
3350 6492
3350 6705
3350 7461
3350 7698
3350 8060
3350 8753
3351 5644
3351 6493
3351 6706
3351 7462
3351 7699
3351 8061
3351 8754
3352 5645
3352 6494
3352 6707
3352 7463
3352 7700
3352 8062
3352 8755
3353 5646
3353 6495
3353 6708
3353 7464
3353 7701
3353 8063
3353 8756
3354 5647
3354 6496
3354 6709
3354 7465
3354 7702
3354 8064
3354 8757
3355 5648
3355 6497
3355 6710
3355 7466
3355 7703
3355 8065
3355 8758
3356 5649
3356 6498
3356 6711
3356 7467
3356 7704
3356 8066
3356 8759
3357 5650
3357 6499
3357 6712
3357 7468
3357 7705
3357 8067
3357 8760
3358 5651
3358 6500
3358 6713
3358 7469
3358 7706
3358 8068
3358 8761
3359 5652
3359 6501
3359 6714
3359 7470
3359 7707
3359 8069
3359 8762
3360 5653
3360 6502
3360 6715
3360 7471
3360 7708
3360 8070
3360 8763
3361 5654
3361 6503
3361 6716
3361 7472
3361 7709
3361 8071
3361 8764
3362 5655
3362 6504
3362 6717
3362 7473
3362 7710
3362 8072
3362 8765
3363 5656
3363 6505
3363 6718
3363 7474
3363 7711
3363 8073
3363 8766
3364 5657
3364 6506
3364 6719
3364 7475
3364 7712
3364 8074
3364 8767
3365 5658
3365 6507
3365 6720
3365 7476
3365 7713
3365 8075
3365 8768
3366 5659
3366 6508
3366 6721
3366 7477
3366 7714
3366 8076
3366 8769
3367 5660
3367 6509
3367 6722
3367 7478
3367 7715
3367 8077
3367 8770
3368 5661
3368 6510
3368 6723
3368 7479
3368 7716
3368 8078
3368 8771
3369 5662
3369 6511
3369 6724
3369 7480
3369 7717
3369 8079
3369 8772
3370 5663
3370 6512
3370 6725
3370 7481
3370 7718
3370 8080
3370 8773
3371 5664
3371 6513
3371 6726
3371 7482
3371 7719
3371 8081
3371 8774
3372 5665
3372 6514
3372 6727
3372 7483
3372 7720
3372 8082
3372 8775
3373 5666
3373 6515
3373 6728
3373 7484
3373 7721
3373 8083
3373 8776
3374 5667
3374 6516
3374 6729
3374 7485
3374 7722
3374 8084
3374 8777
3375 5668
3375 6517
3375 6730
3375 7486
3375 7723
3375 8085
3375 8778
3376 5669
3376 6518
3376 6731
3376 7487
3376 7724
3376 8086
3376 8779
3377 5670
3377 6519
3377 6732
3377 7488
3377 7725
3377 8087
3377 8780
3378 5671
3378 6357
3378 6733
3378 7489
3378 7726
3378 8088
3378 8781
3379 5672
3379 6358
3379 6734
3379 7490
3379 7727
3379 8089
3379 8782
3380 5673
3380 6359
3380 6735
3380 7491
3380 7728
3380 8090
3380 8783
3381 5674
3381 6360
3381 6736
3381 7492
3381 7729
3381 8091
3381 8784
3382 5675
3382 6361
3382 6737
3382 7493
3382 7730
3382 8092
3382 8785
3383 5676
3383 6362
3383 6738
3383 7494
3383 7731
3383 8093
3383 8786
3384 5677
3384 6363
3384 6739
3384 7495
3384 7732
3384 8094
3384 8787
3385 5678
3385 6364
3385 6740
3385 7496
3385 7733
3385 8095
3385 8788
3386 5679
3386 6365
3386 6741
3386 7497
3386 7734
3386 8096
3386 8789
3387 5680
3387 6366
3387 6742
3387 7335
3387 7735
3387 8097
3387 8790
3388 5681
3388 6367
3388 6743
3388 7336
3388 7736
3388 8098
3388 8791
3389 5682
3389 6368
3389 6744
3389 7337
3389 7737
3389 8099
3389 8792
3390 5683
3390 6369
3390 6745
3390 7338
3390 7738
3390 8100
3390 8793
3391 5684
3391 6370
3391 6746
3391 7339
3391 7739
3391 8101
3391 8794
3392 5685
3392 6371
3392 6747
3392 7340
3392 7740
3392 8102
3392 8795
3393 5686
3393 6372
3393 6748
3393 7341
3393 7741
3393 8103
3393 8796
3394 5687
3394 6373
3394 6749
3394 7342
3394 7742
3394 8104
3394 8797
3395 5688
3395 6374
3395 6750
3395 7343
3395 7743
3395 8105
3395 8798
3396 5689
3396 6375
3396 6751
3396 7344
3396 7744
3396 8106
3396 8799
3397 5690
3397 6376
3397 6752
3397 7345
3397 7745
3397 8107
3397 8800
3398 5691
3398 6377
3398 6753
3398 7346
3398 7746
3398 8108
3398 8801
3399 5692
3399 6378
3399 6754
3399 7347
3399 7747
3399 8109
3399 8639
3400 5693
3400 6379
3400 6755
3400 7348
3400 7748
3400 8110
3400 8640
3401 5694
3401 6380
3401 6756
3401 7349
3401 7749
3401 8111
3401 8641
3402 5695
3402 6381
3402 6757
3402 7350
3402 7750
3402 8112
3402 8642
3403 5696
3403 6382
3403 6758
3403 7351
3403 7751
3403 8113
3403 8643
3404 5697
3404 6383
3404 6759
3404 7352
3404 7752
3404 8114
3404 8644
3405 5698
3405 6384
3405 6760
3405 7353
3405 7753
3405 8115
3405 8645
3406 5699
3406 6385
3406 6761
3406 7354
3406 7754
3406 8116
3406 8646
3407 5700
3407 6386
3407 6762
3407 7355
3407 7755
3407 8117
3407 8647
3408 5701
3408 6387
3408 6763
3408 7356
3408 7756
3408 8118
3408 8648
3409 5702
3409 6388
3409 6764
3409 7357
3409 7757
3409 8119
3409 8649
3410 5703
3410 6389
3410 6765
3410 7358
3410 7758
3410 8120
3410 8650
3411 5704
3411 6390
3411 6766
3411 7359
3411 7759
3411 8121
3411 8651
3412 5542
3412 6391
3412 6767
3412 7360
3412 7760
3412 8122
3412 8652
3413 5543
3413 6392
3413 6768
3413 7361
3413 7761
3413 8123
3413 8653
3414 5544
3414 6393
3414 6769
3414 7362
3414 7762
3414 8124
3414 8654
3415 5545
3415 6394
3415 6770
3415 7363
3415 7763
3415 8125
3415 8655
3416 5546
3416 6395
3416 6771
3416 7364
3416 7764
3416 8126
3416 8656
3417 5547
3417 6396
3417 6772
3417 7365
3417 7765
3417 8127
3417 8657
3418 5548
3418 6397
3418 6773
3418 7366
3418 7766
3418 8128
3418 8658
3419 5549
3419 6398
3419 6774
3419 7367
3419 7767
3419 8129
3419 8659
3420 5550
3420 6399
3420 6775
3420 7368
3420 7768
3420 8130
3420 8660
3421 5551
3421 6400
3421 6776
3421 7369
3421 7769
3421 8131
3421 8661
3422 5552
3422 6401
3422 6777
3422 7370
3422 7770
3422 8132
3422 8662
3423 5789
3423 6671
3423 6875
3423 7521
3423 7849
3423 8198
3424 5790
3424 6672
3424 6876
3424 7522
3424 7850
3424 8199
3425 5791
3425 6673
3425 6877
3425 7523
3425 7851
3425 8200
3426 5792
3426 6674
3426 6878
3426 7524
3426 7852
3426 8201
3427 5793
3427 6675
3427 6879
3427 7525
3427 7853
3427 8202
3428 5794
3428 6676
3428 6880
3428 7526
3428 7854
3428 8203
3429 5795
3429 6677
3429 6881
3429 7527
3429 7855
3429 8204
3430 5796
3430 6678
3430 6882
3430 7528
3430 7856
3430 8205
3431 5797
3431 6679
3431 6883
3431 7529
3431 7857
3431 8206
3432 5798
3432 6680
3432 6884
3432 7530
3432 7858
3432 8207
3433 5799
3433 6681
3433 6885
3433 7531
3433 7859
3433 8208
3434 5800
3434 6682
3434 6886
3434 7532
3434 7860
3434 8209
3435 5801
3435 6520
3435 6887
3435 7533
3435 7861
3435 8210
3436 5802
3436 6521
3436 6888
3436 7534
3436 7862
3436 8211
3437 5803
3437 6522
3437 6889
3437 7535
3437 7863
3437 8212
3438 5804
3438 6523
3438 6890
3438 7536
3438 7864
3438 8213
3439 5805
3439 6524
3439 6891
3439 7537
3439 7865
3439 8214
3440 5806
3440 6525
3440 6892
3440 7538
3440 7866
3440 8215
3441 5807
3441 6526
3441 6893
3441 7539
3441 7867
3441 8216
3442 5808
3442 6527
3442 6894
3442 7540
3442 7868
3442 8217
3443 5809
3443 6528
3443 6895
3443 7541
3443 7869
3443 8218
3444 5810
3444 6529
3444 6896
3444 7542
3444 7870
3444 8219
3445 5811
3445 6530
3445 6897
3445 7543
3445 7871
3445 8220
3446 5812
3446 6531
3446 6898
3446 7544
3446 7872
3446 8221
3447 5813
3447 6532
3447 6899
3447 7545
3447 7873
3447 8222
3448 5814
3448 6533
3448 6900
3448 7546
3448 7874
3448 8223
3449 5815
3449 6534
3449 6901
3449 7547
3449 7875
3449 8224
3450 5816
3450 6535
3450 6902
3450 7548
3450 7876
3450 8225
3451 5817
3451 6536
3451 6903
3451 7549
3451 7877
3451 8226
3452 5818
3452 6537
3452 6904
3452 7550
3452 7878
3452 8227
3453 5819
3453 6538
3453 6905
3453 7551
3453 7879
3453 8228
3454 5820
3454 6539
3454 6906
3454 7552
3454 7880
3454 8229
3455 5821
3455 6540
3455 6907
3455 7553
3455 7881
3455 8230
3456 5822
3456 6541
3456 6908
3456 7554
3456 7882
3456 8231
3457 5823
3457 6542
3457 6909
3457 7555
3457 7883
3457 8232
3458 5824
3458 6543
3458 6910
3458 7556
3458 7884
3458 8233
3459 5825
3459 6544
3459 6911
3459 7557
3459 7885
3459 8234
3460 5826
3460 6545
3460 6912
3460 7558
3460 7886
3460 8235
3461 5827
3461 6546
3461 6913
3461 7559
3461 7887
3461 8236
3462 5828
3462 6547
3462 6914
3462 7560
3462 7888
3462 8237
3463 5829
3463 6548
3463 6915
3463 7561
3463 7889
3463 8238
3464 5830
3464 6549
3464 6916
3464 7562
3464 7890
3464 8239
3465 5831
3465 6550
3465 6917
3465 7563
3465 7891
3465 8240
3466 5832
3466 6551
3466 6918
3466 7564
3466 7892
3466 8241
3467 5833
3467 6552
3467 6919
3467 7565
3467 7893
3467 8242
3468 5834
3468 6553
3468 6920
3468 7566
3468 7894
3468 8243
3469 5835
3469 6554
3469 6921
3469 7567
3469 7895
3469 8244
3470 5836
3470 6555
3470 6922
3470 7568
3470 7896
3470 8245
3471 5837
3471 6556
3471 6923
3471 7569
3471 7897
3471 8246
3472 5838
3472 6557
3472 6924
3472 7570
3472 7898
3472 8247
3473 5839
3473 6558
3473 6925
3473 7571
3473 7899
3473 8248
3474 5840
3474 6559
3474 6926
3474 7572
3474 7900
3474 8249
3475 5841
3475 6560
3475 6927
3475 7573
3475 7901
3475 8250
3476 5842
3476 6561
3476 6928
3476 7574
3476 7902
3476 8251
3477 5843
3477 6562
3477 6929
3477 7575
3477 7903
3477 8252
3478 5844
3478 6563
3478 6930
3478 7576
3478 7904
3478 8253
3479 5845
3479 6564
3479 6931
3479 7577
3479 7905
3479 8254
3480 5846
3480 6565
3480 6932
3480 7578
3480 7906
3480 8255
3481 5847
3481 6566
3481 6933
3481 7579
3481 7907
3481 8256
3482 5848
3482 6567
3482 6934
3482 7580
3482 7908
3482 8257
3483 5849
3483 6568
3483 6935
3483 7581
3483 7909
3483 8258
3484 5850
3484 6569
3484 6936
3484 7582
3484 7910
3484 8259
3485 5851
3485 6570
3485 6937
3485 7583
3485 7911
3485 8260
3486 5852
3486 6571
3486 6938
3486 7584
3486 7912
3486 8261
3487 5853
3487 6572
3487 6939
3487 7585
3487 7913
3487 8262
3488 5854
3488 6573
3488 6940
3488 7586
3488 7914
3488 8263
3489 5855
3489 6574
3489 6941
3489 7587
3489 7915
3489 8264
3490 5856
3490 6575
3490 6942
3490 7588
3490 7916
3490 8265
3491 5857
3491 6576
3491 6943
3491 7589
3491 7917
3491 8266
3492 5858
3492 6577
3492 6944
3492 7590
3492 7918
3492 8267
3493 5859
3493 6578
3493 6945
3493 7591
3493 7919
3493 8268
3494 5860
3494 6579
3494 6946
3494 7592
3494 7920
3494 8269
3495 5861
3495 6580
3495 6947
3495 7593
3495 7921
3495 8270
3496 5862
3496 6581
3496 6948
3496 7594
3496 7922
3496 8271
3497 5863
3497 6582
3497 6949
3497 7595
3497 7923
3497 8272
3498 5864
3498 6583
3498 6950
3498 7596
3498 7924
3498 8273
3499 5865
3499 6584
3499 6951
3499 7597
3499 7925
3499 8274
3500 5866
3500 6585
3500 6952
3500 7598
3500 7926
3500 8275
3501 5867
3501 6586
3501 6953
3501 7599
3501 7927
3501 8276
3502 5705
3502 6587
3502 6954
3502 7600
3502 7928
3502 8277
3503 5706
3503 6588
3503 6955
3503 7601
3503 7929
3503 8278
3504 5707
3504 6589
3504 6956
3504 7602
3504 7930
3504 8279
3505 5708
3505 6590
3505 6957
3505 7603
3505 7931
3505 8280
3506 5709
3506 6591
3506 6958
3506 7604
3506 7932
3506 8281
3507 5710
3507 6592
3507 6959
3507 7605
3507 7933
3507 8282
3508 5711
3508 6593
3508 6960
3508 7606
3508 7934
3508 8283
3509 5712
3509 6594
3509 6961
3509 7607
3509 7935
3509 8284
3510 5713
3510 6595
3510 6962
3510 7608
3510 7936
3510 8285
3511 5714
3511 6596
3511 6963
3511 7609
3511 7937
3511 8286
3512 5715
3512 6597
3512 6964
3512 7610
3512 7938
3512 8287
3513 5716
3513 6598
3513 6965
3513 7611
3513 7939
3513 8288
3514 5717
3514 6599
3514 6966
3514 7612
3514 7940
3514 8289
3515 5718
3515 6600
3515 6967
3515 7613
3515 7941
3515 8290
3516 5719
3516 6601
3516 6968
3516 7614
3516 7942
3516 8291
3517 5720
3517 6602
3517 6969
3517 7615
3517 7943
3517 8292
3518 5721
3518 6603
3518 6970
3518 7616
3518 7944
3518 8293
3519 5722
3519 6604
3519 6971
3519 7617
3519 7945
3519 8294
3520 5723
3520 6605
3520 6972
3520 7618
3520 7946
3520 8295
3521 5724
3521 6606
3521 6973
3521 7619
3521 7947
3521 8296
3522 5725
3522 6607
3522 6974
3522 7620
3522 7948
3522 8297
3523 5726
3523 6608
3523 6975
3523 7621
3523 7949
3523 8298
3524 5727
3524 6609
3524 6976
3524 7622
3524 7950
3524 8299
3525 5728
3525 6610
3525 6977
3525 7623
3525 7951
3525 8300
3526 5729
3526 6611
3526 6978
3526 7624
3526 7952
3526 8301
3527 5730
3527 6612
3527 6979
3527 7625
3527 7953
3527 8302
3528 5731
3528 6613
3528 6980
3528 7626
3528 7954
3528 8303
3529 5732
3529 6614
3529 6981
3529 7627
3529 7955
3529 8304
3530 5733
3530 6615
3530 6982
3530 7628
3530 7956
3530 8305
3531 5734
3531 6616
3531 6983
3531 7629
3531 7957
3531 8306
3532 5735
3532 6617
3532 6984
3532 7630
3532 7958
3532 8307
3533 5736
3533 6618
3533 6985
3533 7631
3533 7959
3533 8308
3534 5737
3534 6619
3534 6986
3534 7632
3534 7960
3534 8309
3535 5738
3535 6620
3535 6987
3535 7633
3535 7961
3535 8310
3536 5739
3536 6621
3536 6988
3536 7634
3536 7962
3536 8311
3537 5740
3537 6622
3537 6989
3537 7635
3537 7963
3537 8312
3538 5741
3538 6623
3538 6990
3538 7636
3538 7964
3538 8150
3539 5742
3539 6624
3539 6991
3539 7637
3539 7965
3539 8151
3540 5743
3540 6625
3540 6992
3540 7638
3540 7966
3540 8152
3541 5744
3541 6626
3541 6993
3541 7639
3541 7967
3541 8153
3542 5745
3542 6627
3542 6994
3542 7640
3542 7968
3542 8154
3543 5746
3543 6628
3543 6995
3543 7641
3543 7969
3543 8155
3544 5747
3544 6629
3544 6996
3544 7642
3544 7970
3544 8156
3545 5748
3545 6630
3545 6997
3545 7643
3545 7971
3545 8157
3546 5749
3546 6631
3546 6998
3546 7644
3546 7972
3546 8158
3547 5750
3547 6632
3547 6999
3547 7645
3547 7973
3547 8159
3548 5751
3548 6633
3548 7000
3548 7646
3548 7974
3548 8160
3549 5752
3549 6634
3549 7001
3549 7647
3549 7975
3549 8161
3550 5753
3550 6635
3550 7002
3550 7648
3550 7976
3550 8162
3551 5754
3551 6636
3551 7003
3551 7649
3551 7977
3551 8163
3552 5755
3552 6637
3552 7004
3552 7650
3552 7978
3552 8164
3553 5756
3553 6638
3553 7005
3553 7651
3553 7979
3553 8165
3554 5757
3554 6639
3554 7006
3554 7652
3554 7980
3554 8166
3555 5758
3555 6640
3555 7007
3555 7653
3555 7981
3555 8167
3556 5759
3556 6641
3556 7008
3556 7654
3556 7982
3556 8168
3557 5760
3557 6642
3557 6846
3557 7655
3557 7983
3557 8169
3558 5761
3558 6643
3558 6847
3558 7656
3558 7984
3558 8170
3559 5762
3559 6644
3559 6848
3559 7657
3559 7985
3559 8171
3560 5763
3560 6645
3560 6849
3560 7658
3560 7986
3560 8172
3561 5764
3561 6646
3561 6850
3561 7659
3561 7824
3561 8173
3562 5765
3562 6647
3562 6851
3562 7660
3562 7825
3562 8174
3563 5766
3563 6648
3563 6852
3563 7498
3563 7826
3563 8175
3564 5767
3564 6649
3564 6853
3564 7499
3564 7827
3564 8176
3565 5768
3565 6650
3565 6854
3565 7500
3565 7828
3565 8177
3566 5769
3566 6651
3566 6855
3566 7501
3566 7829
3566 8178
3567 5770
3567 6652
3567 6856
3567 7502
3567 7830
3567 8179
3568 5771
3568 6653
3568 6857
3568 7503
3568 7831
3568 8180
3569 5772
3569 6654
3569 6858
3569 7504
3569 7832
3569 8181
3570 5773
3570 6655
3570 6859
3570 7505
3570 7833
3570 8182
3571 5774
3571 6656
3571 6860
3571 7506
3571 7834
3571 8183
3572 5775
3572 6657
3572 6861
3572 7507
3572 7835
3572 8184
3573 5776
3573 6658
3573 6862
3573 7508
3573 7836
3573 8185
3574 5777
3574 6659
3574 6863
3574 7509
3574 7837
3574 8186
3575 5778
3575 6660
3575 6864
3575 7510
3575 7838
3575 8187
3576 5779
3576 6661
3576 6865
3576 7511
3576 7839
3576 8188
3577 5780
3577 6662
3577 6866
3577 7512
3577 7840
3577 8189
3578 5781
3578 6663
3578 6867
3578 7513
3578 7841
3578 8190
3579 5782
3579 6664
3579 6868
3579 7514
3579 7842
3579 8191
3580 5783
3580 6665
3580 6869
3580 7515
3580 7843
3580 8192
3581 5784
3581 6666
3581 6870
3581 7516
3581 7844
3581 8193
3582 5785
3582 6667
3582 6871
3582 7517
3582 7845
3582 8194
3583 5786
3583 6668
3583 6872
3583 7518
3583 7846
3583 8195
3584 5787
3584 6669
3584 6873
3584 7519
3584 7847
3584 8196
3585 5788
3585 6670
3585 6874
3585 7520
3585 7848
3585 8197
3586 5976
3586 6784
3586 7023
3586 7807
3586 8089
3586 8398
3587 5977
3587 6785
3587 7024
3587 7808
3587 8090
3587 8399
3588 5978
3588 6786
3588 7025
3588 7809
3588 8091
3588 8400
3589 5979
3589 6787
3589 7026
3589 7810
3589 8092
3589 8401
3590 5980
3590 6788
3590 7027
3590 7811
3590 8093
3590 8402
3591 5981
3591 6789
3591 7028
3591 7812
3591 8094
3591 8403
3592 5982
3592 6790
3592 7029
3592 7813
3592 8095
3592 8404
3593 5983
3593 6791
3593 7030
3593 7814
3593 8096
3593 8405
3594 5984
3594 6792
3594 7031
3594 7815
3594 8097
3594 8406
3595 5985
3595 6793
3595 7032
3595 7816
3595 8098
3595 8407
3596 5986
3596 6794
3596 7033
3596 7817
3596 8099
3596 8408
3597 5987
3597 6795
3597 7034
3597 7818
3597 8100
3597 8409
3598 5988
3598 6796
3598 7035
3598 7819
3598 8101
3598 8410
3599 5989
3599 6797
3599 7036
3599 7820
3599 8102
3599 8411
3600 5990
3600 6798
3600 7037
3600 7821
3600 8103
3600 8412
3601 5991
3601 6799
3601 7038
3601 7822
3601 8104
3601 8413
3602 5992
3602 6800
3602 7039
3602 7823
3602 8105
3602 8414
3603 5993
3603 6801
3603 7040
3603 7661
3603 8106
3603 8415
3604 5994
3604 6802
3604 7041
3604 7662
3604 8107
3604 8416
3605 5995
3605 6803
3605 7042
3605 7663
3605 8108
3605 8417
3606 5996
3606 6804
3606 7043
3606 7664
3606 8109
3606 8418
3607 5997
3607 6805
3607 7044
3607 7665
3607 8110
3607 8419
3608 5998
3608 6806
3608 7045
3608 7666
3608 8111
3608 8420
3609 5999
3609 6807
3609 7046
3609 7667
3609 8112
3609 8421
3610 6000
3610 6808
3610 7047
3610 7668
3610 8113
3610 8422
3611 6001
3611 6809
3611 7048
3611 7669
3611 8114
3611 8423
3612 6002
3612 6810
3612 7049
3612 7670
3612 8115
3612 8424
3613 6003
3613 6811
3613 7050
3613 7671
3613 8116
3613 8425
3614 6004
3614 6812
3614 7051
3614 7672
3614 8117
3614 8426
3615 6005
3615 6813
3615 7052
3615 7673
3615 8118
3615 8427
3616 6006
3616 6814
3616 7053
3616 7674
3616 8119
3616 8428
3617 6007
3617 6815
3617 7054
3617 7675
3617 8120
3617 8429
3618 6008
3618 6816
3618 7055
3618 7676
3618 8121
3618 8430
3619 6009
3619 6817
3619 7056
3619 7677
3619 8122
3619 8431
3620 6010
3620 6818
3620 7057
3620 7678
3620 8123
3620 8432
3621 6011
3621 6819
3621 7058
3621 7679
3621 8124
3621 8433
3622 6012
3622 6820
3622 7059
3622 7680
3622 8125
3622 8434
3623 6013
3623 6821
3623 7060
3623 7681
3623 8126
3623 8435
3624 6014
3624 6822
3624 7061
3624 7682
3624 8127
3624 8436
3625 6015
3625 6823
3625 7062
3625 7683
3625 8128
3625 8437
3626 6016
3626 6824
3626 7063
3626 7684
3626 8129
3626 8438
3627 6017
3627 6825
3627 7064
3627 7685
3627 8130
3627 8439
3628 6018
3628 6826
3628 7065
3628 7686
3628 8131
3628 8440
3629 6019
3629 6827
3629 7066
3629 7687
3629 8132
3629 8441
3630 6020
3630 6828
3630 7067
3630 7688
3630 8133
3630 8442
3631 6021
3631 6829
3631 7068
3631 7689
3631 8134
3631 8443
3632 6022
3632 6830
3632 7069
3632 7690
3632 8135
3632 8444
3633 6023
3633 6831
3633 7070
3633 7691
3633 8136
3633 8445
3634 6024
3634 6832
3634 7071
3634 7692
3634 8137
3634 8446
3635 6025
3635 6833
3635 7072
3635 7693
3635 8138
3635 8447
3636 6026
3636 6834
3636 7073
3636 7694
3636 8139
3636 8448
3637 6027
3637 6835
3637 7074
3637 7695
3637 8140
3637 8449
3638 6028
3638 6836
3638 7075
3638 7696
3638 8141
3638 8450
3639 6029
3639 6837
3639 7076
3639 7697
3639 8142
3639 8451
3640 6030
3640 6838
3640 7077
3640 7698
3640 8143
3640 8452
3641 5868
3641 6839
3641 7078
3641 7699
3641 8144
3641 8453
3642 5869
3642 6840
3642 7079
3642 7700
3642 8145
3642 8454
3643 5870
3643 6841
3643 7080
3643 7701
3643 8146
3643 8455
3644 5871
3644 6842
3644 7081
3644 7702
3644 8147
3644 8456
3645 5872
3645 6843
3645 7082
3645 7703
3645 8148
3645 8457
3646 5873
3646 6844
3646 7083
3646 7704
3646 8149
3646 8458
3647 5874
3647 6845
3647 7084
3647 7705
3647 7987
3647 8459
3648 5875
3648 6683
3648 7085
3648 7706
3648 7988
3648 8460
3649 5876
3649 6684
3649 7086
3649 7707
3649 7989
3649 8461
3650 5877
3650 6685
3650 7087
3650 7708
3650 7990
3650 8462
3651 5878
3651 6686
3651 7088
3651 7709
3651 7991
3651 8463
3652 5879
3652 6687
3652 7089
3652 7710
3652 7992
3652 8464
3653 5880
3653 6688
3653 7090
3653 7711
3653 7993
3653 8465
3654 5881
3654 6689
3654 7091
3654 7712
3654 7994
3654 8466
3655 5882
3655 6690
3655 7092
3655 7713
3655 7995
3655 8467
3656 5883
3656 6691
3656 7093
3656 7714
3656 7996
3656 8468
3657 5884
3657 6692
3657 7094
3657 7715
3657 7997
3657 8469
3658 5885
3658 6693
3658 7095
3658 7716
3658 7998
3658 8470
3659 5886
3659 6694
3659 7096
3659 7717
3659 7999
3659 8471
3660 5887
3660 6695
3660 7097
3660 7718
3660 8000
3660 8472
3661 5888
3661 6696
3661 7098
3661 7719
3661 8001
3661 8473
3662 5889
3662 6697
3662 7099
3662 7720
3662 8002
3662 8474
3663 5890
3663 6698
3663 7100
3663 7721
3663 8003
3663 8475
3664 5891
3664 6699
3664 7101
3664 7722
3664 8004
3664 8313
3665 5892
3665 6700
3665 7102
3665 7723
3665 8005
3665 8314
3666 5893
3666 6701
3666 7103
3666 7724
3666 8006
3666 8315
3667 5894
3667 6702
3667 7104
3667 7725
3667 8007
3667 8316
3668 5895
3668 6703
3668 7105
3668 7726
3668 8008
3668 8317
3669 5896
3669 6704
3669 7106
3669 7727
3669 8009
3669 8318
3670 5897
3670 6705
3670 7107
3670 7728
3670 8010
3670 8319
3671 5898
3671 6706
3671 7108
3671 7729
3671 8011
3671 8320
3672 5899
3672 6707
3672 7109
3672 7730
3672 8012
3672 8321
3673 5900
3673 6708
3673 7110
3673 7731
3673 8013
3673 8322
3674 5901
3674 6709
3674 7111
3674 7732
3674 8014
3674 8323
3675 5902
3675 6710
3675 7112
3675 7733
3675 8015
3675 8324
3676 5903
3676 6711
3676 7113
3676 7734
3676 8016
3676 8325
3677 5904
3677 6712
3677 7114
3677 7735
3677 8017
3677 8326
3678 5905
3678 6713
3678 7115
3678 7736
3678 8018
3678 8327
3679 5906
3679 6714
3679 7116
3679 7737
3679 8019
3679 8328
3680 5907
3680 6715
3680 7117
3680 7738
3680 8020
3680 8329
3681 5908
3681 6716
3681 7118
3681 7739
3681 8021
3681 8330
3682 5909
3682 6717
3682 7119
3682 7740
3682 8022
3682 8331
3683 5910
3683 6718
3683 7120
3683 7741
3683 8023
3683 8332
3684 5911
3684 6719
3684 7121
3684 7742
3684 8024
3684 8333
3685 5912
3685 6720
3685 7122
3685 7743
3685 8025
3685 8334
3686 5913
3686 6721
3686 7123
3686 7744
3686 8026
3686 8335
3687 5914
3687 6722
3687 7124
3687 7745
3687 8027
3687 8336
3688 5915
3688 6723
3688 7125
3688 7746
3688 8028
3688 8337
3689 5916
3689 6724
3689 7126
3689 7747
3689 8029
3689 8338
3690 5917
3690 6725
3690 7127
3690 7748
3690 8030
3690 8339
3691 5918
3691 6726
3691 7128
3691 7749
3691 8031
3691 8340
3692 5919
3692 6727
3692 7129
3692 7750
3692 8032
3692 8341
3693 5920
3693 6728
3693 7130
3693 7751
3693 8033
3693 8342
3694 5921
3694 6729
3694 7131
3694 7752
3694 8034
3694 8343
3695 5922
3695 6730
3695 7132
3695 7753
3695 8035
3695 8344
3696 5923
3696 6731
3696 7133
3696 7754
3696 8036
3696 8345
3697 5924
3697 6732
3697 7134
3697 7755
3697 8037
3697 8346
3698 5925
3698 6733
3698 7135
3698 7756
3698 8038
3698 8347
3699 5926
3699 6734
3699 7136
3699 7757
3699 8039
3699 8348
3700 5927
3700 6735
3700 7137
3700 7758
3700 8040
3700 8349
3701 5928
3701 6736
3701 7138
3701 7759
3701 8041
3701 8350
3702 5929
3702 6737
3702 7139
3702 7760
3702 8042
3702 8351
3703 5930
3703 6738
3703 7140
3703 7761
3703 8043
3703 8352
3704 5931
3704 6739
3704 7141
3704 7762
3704 8044
3704 8353
3705 5932
3705 6740
3705 7142
3705 7763
3705 8045
3705 8354
3706 5933
3706 6741
3706 7143
3706 7764
3706 8046
3706 8355
3707 5934
3707 6742
3707 7144
3707 7765
3707 8047
3707 8356
3708 5935
3708 6743
3708 7145
3708 7766
3708 8048
3708 8357
3709 5936
3709 6744
3709 7146
3709 7767
3709 8049
3709 8358
3710 5937
3710 6745
3710 7147
3710 7768
3710 8050
3710 8359
3711 5938
3711 6746
3711 7148
3711 7769
3711 8051
3711 8360
3712 5939
3712 6747
3712 7149
3712 7770
3712 8052
3712 8361
3713 5940
3713 6748
3713 7150
3713 7771
3713 8053
3713 8362
3714 5941
3714 6749
3714 7151
3714 7772
3714 8054
3714 8363
3715 5942
3715 6750
3715 7152
3715 7773
3715 8055
3715 8364
3716 5943
3716 6751
3716 7153
3716 7774
3716 8056
3716 8365
3717 5944
3717 6752
3717 7154
3717 7775
3717 8057
3717 8366
3718 5945
3718 6753
3718 7155
3718 7776
3718 8058
3718 8367
3719 5946
3719 6754
3719 7156
3719 7777
3719 8059
3719 8368
3720 5947
3720 6755
3720 7157
3720 7778
3720 8060
3720 8369
3721 5948
3721 6756
3721 7158
3721 7779
3721 8061
3721 8370
3722 5949
3722 6757
3722 7159
3722 7780
3722 8062
3722 8371
3723 5950
3723 6758
3723 7160
3723 7781
3723 8063
3723 8372
3724 5951
3724 6759
3724 7161
3724 7782
3724 8064
3724 8373
3725 5952
3725 6760
3725 7162
3725 7783
3725 8065
3725 8374
3726 5953
3726 6761
3726 7163
3726 7784
3726 8066
3726 8375
3727 5954
3727 6762
3727 7164
3727 7785
3727 8067
3727 8376
3728 5955
3728 6763
3728 7165
3728 7786
3728 8068
3728 8377
3729 5956
3729 6764
3729 7166
3729 7787
3729 8069
3729 8378
3730 5957
3730 6765
3730 7167
3730 7788
3730 8070
3730 8379
3731 5958
3731 6766
3731 7168
3731 7789
3731 8071
3731 8380
3732 5959
3732 6767
3732 7169
3732 7790
3732 8072
3732 8381
3733 5960
3733 6768
3733 7170
3733 7791
3733 8073
3733 8382
3734 5961
3734 6769
3734 7171
3734 7792
3734 8074
3734 8383
3735 5962
3735 6770
3735 7009
3735 7793
3735 8075
3735 8384
3736 5963
3736 6771
3736 7010
3736 7794
3736 8076
3736 8385
3737 5964
3737 6772
3737 7011
3737 7795
3737 8077
3737 8386
3738 5965
3738 6773
3738 7012
3738 7796
3738 8078
3738 8387
3739 5966
3739 6774
3739 7013
3739 7797
3739 8079
3739 8388
3740 5967
3740 6775
3740 7014
3740 7798
3740 8080
3740 8389
3741 5968
3741 6776
3741 7015
3741 7799
3741 8081
3741 8390
3742 5969
3742 6777
3742 7016
3742 7800
3742 8082
3742 8391
3743 5970
3743 6778
3743 7017
3743 7801
3743 8083
3743 8392
3744 5971
3744 6779
3744 7018
3744 7802
3744 8084
3744 8393
3745 5972
3745 6780
3745 7019
3745 7803
3745 8085
3745 8394
3746 5973
3746 6781
3746 7020
3746 7804
3746 8086
3746 8395
3747 5974
3747 6782
3747 7021
3747 7805
3747 8087
3747 8396
3748 5975
3748 6783
3748 7022
3748 7806
3748 8088
3748 8397
3749 6100
3749 6906
3749 7190
3749 7872
3749 8188
3749 8562
3750 6101
3750 6907
3750 7191
3750 7873
3750 8189
3750 8563
3751 6102
3751 6908
3751 7192
3751 7874
3751 8190
3751 8564
3752 6103
3752 6909
3752 7193
3752 7875
3752 8191
3752 8565
3753 6104
3753 6910
3753 7194
3753 7876
3753 8192
3753 8566
3754 6105
3754 6911
3754 7195
3754 7877
3754 8193
3754 8567
3755 6106
3755 6912
3755 7196
3755 7878
3755 8194
3755 8568
3756 6107
3756 6913
3756 7197
3756 7879
3756 8195
3756 8569
3757 6108
3757 6914
3757 7198
3757 7880
3757 8196
3757 8570
3758 6109
3758 6915
3758 7199
3758 7881
3758 8197
3758 8571
3759 6110
3759 6916
3759 7200
3759 7882
3759 8198
3759 8572
3760 6111
3760 6917
3760 7201
3760 7883
3760 8199
3760 8573
3761 6112
3761 6918
3761 7202
3761 7884
3761 8200
3761 8574
3762 6113
3762 6919
3762 7203
3762 7885
3762 8201
3762 8575
3763 6114
3763 6920
3763 7204
3763 7886
3763 8202
3763 8576
3764 6115
3764 6921
3764 7205
3764 7887
3764 8203
3764 8577
3765 6116
3765 6922
3765 7206
3765 7888
3765 8204
3765 8578
3766 6117
3766 6923
3766 7207
3766 7889
3766 8205
3766 8579
3767 6118
3767 6924
3767 7208
3767 7890
3767 8206
3767 8580
3768 6119
3768 6925
3768 7209
3768 7891
3768 8207
3768 8581
3769 6120
3769 6926
3769 7210
3769 7892
3769 8208
3769 8582
3770 6121
3770 6927
3770 7211
3770 7893
3770 8209
3770 8583
3771 6122
3771 6928
3771 7212
3771 7894
3771 8210
3771 8584
3772 6123
3772 6929
3772 7213
3772 7895
3772 8211
3772 8585
3773 6124
3773 6930
3773 7214
3773 7896
3773 8212
3773 8586
3774 6125
3774 6931
3774 7215
3774 7897
3774 8213
3774 8587
3775 6126
3775 6932
3775 7216
3775 7898
3775 8214
3775 8588
3776 6127
3776 6933
3776 7217
3776 7899
3776 8215
3776 8589
3777 6128
3777 6934
3777 7218
3777 7900
3777 8216
3777 8590
3778 6129
3778 6935
3778 7219
3778 7901
3778 8217
3778 8591
3779 6130
3779 6936
3779 7220
3779 7902
3779 8218
3779 8592
3780 6131
3780 6937
3780 7221
3780 7903
3780 8219
3780 8593
3781 6132
3781 6938
3781 7222
3781 7904
3781 8220
3781 8594
3782 6133
3782 6939
3782 7223
3782 7905
3782 8221
3782 8595
3783 6134
3783 6940
3783 7224
3783 7906
3783 8222
3783 8596
3784 6135
3784 6941
3784 7225
3784 7907
3784 8223
3784 8597
3785 6136
3785 6942
3785 7226
3785 7908
3785 8224
3785 8598
3786 6137
3786 6943
3786 7227
3786 7909
3786 8225
3786 8599
3787 6138
3787 6944
3787 7228
3787 7910
3787 8226
3787 8600
3788 6139
3788 6945
3788 7229
3788 7911
3788 8227
3788 8601
3789 6140
3789 6946
3789 7230
3789 7912
3789 8228
3789 8602
3790 6141
3790 6947
3790 7231
3790 7913
3790 8229
3790 8603
3791 6142
3791 6948
3791 7232
3791 7914
3791 8230
3791 8604
3792 6143
3792 6949
3792 7233
3792 7915
3792 8231
3792 8605
3793 6144
3793 6950
3793 7234
3793 7916
3793 8232
3793 8606
3794 6145
3794 6951
3794 7235
3794 7917
3794 8233
3794 8607
3795 6146
3795 6952
3795 7236
3795 7918
3795 8234
3795 8608
3796 6147
3796 6953
3796 7237
3796 7919
3796 8235
3796 8609
3797 6148
3797 6954
3797 7238
3797 7920
3797 8236
3797 8610
3798 6149
3798 6955
3798 7239
3798 7921
3798 8237
3798 8611
3799 6150
3799 6956
3799 7240
3799 7922
3799 8238
3799 8612
3800 6151
3800 6957
3800 7241
3800 7923
3800 8239
3800 8613
3801 6152
3801 6958
3801 7242
3801 7924
3801 8240
3801 8614
3802 6153
3802 6959
3802 7243
3802 7925
3802 8241
3802 8615
3803 6154
3803 6960
3803 7244
3803 7926
3803 8242
3803 8616
3804 6155
3804 6961
3804 7245
3804 7927
3804 8243
3804 8617
3805 6156
3805 6962
3805 7246
3805 7928
3805 8244
3805 8618
3806 6157
3806 6963
3806 7247
3806 7929
3806 8245
3806 8619
3807 6158
3807 6964
3807 7248
3807 7930
3807 8246
3807 8620
3808 6159
3808 6965
3808 7249
3808 7931
3808 8247
3808 8621
3809 6160
3809 6966
3809 7250
3809 7932
3809 8248
3809 8622
3810 6161
3810 6967
3810 7251
3810 7933
3810 8249
3810 8623
3811 6162
3811 6968
3811 7252
3811 7934
3811 8250
3811 8624
3812 6163
3812 6969
3812 7253
3812 7935
3812 8251
3812 8625
3813 6164
3813 6970
3813 7254
3813 7936
3813 8252
3813 8626
3814 6165
3814 6971
3814 7255
3814 7937
3814 8253
3814 8627
3815 6166
3815 6972
3815 7256
3815 7938
3815 8254
3815 8628
3816 6167
3816 6973
3816 7257
3816 7939
3816 8255
3816 8629
3817 6168
3817 6974
3817 7258
3817 7940
3817 8256
3817 8630
3818 6169
3818 6975
3818 7259
3818 7941
3818 8257
3818 8631
3819 6170
3819 6976
3819 7260
3819 7942
3819 8258
3819 8632
3820 6171
3820 6977
3820 7261
3820 7943
3820 8259
3820 8633
3821 6172
3821 6978
3821 7262
3821 7944
3821 8260
3821 8634
3822 6173
3822 6979
3822 7263
3822 7945
3822 8261
3822 8635
3823 6174
3823 6980
3823 7264
3823 7946
3823 8262
3823 8636
3824 6175
3824 6981
3824 7265
3824 7947
3824 8263
3824 8637
3825 6176
3825 6982
3825 7266
3825 7948
3825 8264
3825 8638
3826 6177
3826 6983
3826 7267
3826 7949
3826 8265
3826 8476
3827 6178
3827 6984
3827 7268
3827 7950
3827 8266
3827 8477
3828 6179
3828 6985
3828 7269
3828 7951
3828 8267
3828 8478
3829 6180
3829 6986
3829 7270
3829 7952
3829 8268
3829 8479
3830 6181
3830 6987
3830 7271
3830 7953
3830 8269
3830 8480
3831 6182
3831 6988
3831 7272
3831 7954
3831 8270
3831 8481
3832 6183
3832 6989
3832 7273
3832 7955
3832 8271
3832 8482
3833 6184
3833 6990
3833 7274
3833 7956
3833 8272
3833 8483
3834 6185
3834 6991
3834 7275
3834 7957
3834 8273
3834 8484
3835 6186
3835 6992
3835 7276
3835 7958
3835 8274
3835 8485
3836 6187
3836 6993
3836 7277
3836 7959
3836 8275
3836 8486
3837 6188
3837 6994
3837 7278
3837 7960
3837 8276
3837 8487
3838 6189
3838 6995
3838 7279
3838 7961
3838 8277
3838 8488
3839 6190
3839 6996
3839 7280
3839 7962
3839 8278
3839 8489
3840 6191
3840 6997
3840 7281
3840 7963
3840 8279
3840 8490
3841 6192
3841 6998
3841 7282
3841 7964
3841 8280
3841 8491
3842 6193
3842 6999
3842 7283
3842 7965
3842 8281
3842 8492
3843 6031
3843 7000
3843 7284
3843 7966
3843 8282
3843 8493
3844 6032
3844 7001
3844 7285
3844 7967
3844 8283
3844 8494
3845 6033
3845 7002
3845 7286
3845 7968
3845 8284
3845 8495
3846 6034
3846 7003
3846 7287
3846 7969
3846 8285
3846 8496
3847 6035
3847 7004
3847 7288
3847 7970
3847 8286
3847 8497
3848 6036
3848 7005
3848 7289
3848 7971
3848 8287
3848 8498
3849 6037
3849 7006
3849 7290
3849 7972
3849 8288
3849 8499
3850 6038
3850 7007
3850 7291
3850 7973
3850 8289
3850 8500
3851 6039
3851 7008
3851 7292
3851 7974
3851 8290
3851 8501
3852 6040
3852 6846
3852 7293
3852 7975
3852 8291
3852 8502
3853 6041
3853 6847
3853 7294
3853 7976
3853 8292
3853 8503
3854 6042
3854 6848
3854 7295
3854 7977
3854 8293
3854 8504
3855 6043
3855 6849
3855 7296
3855 7978
3855 8294
3855 8505
3856 6044
3856 6850
3856 7297
3856 7979
3856 8295
3856 8506
3857 6045
3857 6851
3857 7298
3857 7980
3857 8296
3857 8507
3858 6046
3858 6852
3858 7299
3858 7981
3858 8297
3858 8508
3859 6047
3859 6853
3859 7300
3859 7982
3859 8298
3859 8509
3860 6048
3860 6854
3860 7301
3860 7983
3860 8299
3860 8510
3861 6049
3861 6855
3861 7302
3861 7984
3861 8300
3861 8511
3862 6050
3862 6856
3862 7303
3862 7985
3862 8301
3862 8512
3863 6051
3863 6857
3863 7304
3863 7986
3863 8302
3863 8513
3864 6052
3864 6858
3864 7305
3864 7824
3864 8303
3864 8514
3865 6053
3865 6859
3865 7306
3865 7825
3865 8304
3865 8515
3866 6054
3866 6860
3866 7307
3866 7826
3866 8305
3866 8516
3867 6055
3867 6861
3867 7308
3867 7827
3867 8306
3867 8517
3868 6056
3868 6862
3868 7309
3868 7828
3868 8307
3868 8518
3869 6057
3869 6863
3869 7310
3869 7829
3869 8308
3869 8519
3870 6058
3870 6864
3870 7311
3870 7830
3870 8309
3870 8520
3871 6059
3871 6865
3871 7312
3871 7831
3871 8310
3871 8521
3872 6060
3872 6866
3872 7313
3872 7832
3872 8311
3872 8522
3873 6061
3873 6867
3873 7314
3873 7833
3873 8312
3873 8523
3874 6062
3874 6868
3874 7315
3874 7834
3874 8150
3874 8524
3875 6063
3875 6869
3875 7316
3875 7835
3875 8151
3875 8525
3876 6064
3876 6870
3876 7317
3876 7836
3876 8152
3876 8526
3877 6065
3877 6871
3877 7318
3877 7837
3877 8153
3877 8527
3878 6066
3878 6872
3878 7319
3878 7838
3878 8154
3878 8528
3879 6067
3879 6873
3879 7320
3879 7839
3879 8155
3879 8529
3880 6068
3880 6874
3880 7321
3880 7840
3880 8156
3880 8530
3881 6069
3881 6875
3881 7322
3881 7841
3881 8157
3881 8531
3882 6070
3882 6876
3882 7323
3882 7842
3882 8158
3882 8532
3883 6071
3883 6877
3883 7324
3883 7843
3883 8159
3883 8533
3884 6072
3884 6878
3884 7325
3884 7844
3884 8160
3884 8534
3885 6073
3885 6879
3885 7326
3885 7845
3885 8161
3885 8535
3886 6074
3886 6880
3886 7327
3886 7846
3886 8162
3886 8536
3887 6075
3887 6881
3887 7328
3887 7847
3887 8163
3887 8537
3888 6076
3888 6882
3888 7329
3888 7848
3888 8164
3888 8538
3889 6077
3889 6883
3889 7330
3889 7849
3889 8165
3889 8539
3890 6078
3890 6884
3890 7331
3890 7850
3890 8166
3890 8540
3891 6079
3891 6885
3891 7332
3891 7851
3891 8167
3891 8541
3892 6080
3892 6886
3892 7333
3892 7852
3892 8168
3892 8542
3893 6081
3893 6887
3893 7334
3893 7853
3893 8169
3893 8543
3894 6082
3894 6888
3894 7172
3894 7854
3894 8170
3894 8544
3895 6083
3895 6889
3895 7173
3895 7855
3895 8171
3895 8545
3896 6084
3896 6890
3896 7174
3896 7856
3896 8172
3896 8546
3897 6085
3897 6891
3897 7175
3897 7857
3897 8173
3897 8547
3898 6086
3898 6892
3898 7176
3898 7858
3898 8174
3898 8548
3899 6087
3899 6893
3899 7177
3899 7859
3899 8175
3899 8549
3900 6088
3900 6894
3900 7178
3900 7860
3900 8176
3900 8550
3901 6089
3901 6895
3901 7179
3901 7861
3901 8177
3901 8551
3902 6090
3902 6896
3902 7180
3902 7862
3902 8178
3902 8552
3903 6091
3903 6897
3903 7181
3903 7863
3903 8179
3903 8553
3904 6092
3904 6898
3904 7182
3904 7864
3904 8180
3904 8554
3905 6093
3905 6899
3905 7183
3905 7865
3905 8181
3905 8555
3906 6094
3906 6900
3906 7184
3906 7866
3906 8182
3906 8556
3907 6095
3907 6901
3907 7185
3907 7867
3907 8183
3907 8557
3908 6096
3908 6902
3908 7186
3908 7868
3908 8184
3908 8558
3909 6097
3909 6903
3909 7187
3909 7869
3909 8185
3909 8559
3910 6098
3910 6904
3910 7188
3910 7870
3910 8186
3910 8560
3911 6099
3911 6905
3911 7189
3911 7871
3911 8187
3911 8561
3912 6306
3912 7156
3912 7428
3912 8072
3912 8455
3912 8703
3913 6307
3913 7157
3913 7429
3913 8073
3913 8456
3913 8704
3914 6308
3914 7158
3914 7430
3914 8074
3914 8457
3914 8705
3915 6309
3915 7159
3915 7431
3915 8075
3915 8458
3915 8706
3916 6310
3916 7160
3916 7432
3916 8076
3916 8459
3916 8707
3917 6311
3917 7161
3917 7433
3917 8077
3917 8460
3917 8708
3918 6312
3918 7162
3918 7434
3918 8078
3918 8461
3918 8709
3919 6313
3919 7163
3919 7435
3919 8079
3919 8462
3919 8710
3920 6314
3920 7164
3920 7436
3920 8080
3920 8463
3920 8711
3921 6315
3921 7165
3921 7437
3921 8081
3921 8464
3921 8712
3922 6316
3922 7166
3922 7438
3922 8082
3922 8465
3922 8713
3923 6317
3923 7167
3923 7439
3923 8083
3923 8466
3923 8714
3924 6318
3924 7168
3924 7440
3924 8084
3924 8467
3924 8715
3925 6319
3925 7169
3925 7441
3925 8085
3925 8468
3925 8716
3926 6320
3926 7170
3926 7442
3926 8086
3926 8469
3926 8717
3927 6321
3927 7171
3927 7443
3927 8087
3927 8470
3927 8718
3928 6322
3928 7009
3928 7444
3928 8088
3928 8471
3928 8719
3929 6323
3929 7010
3929 7445
3929 8089
3929 8472
3929 8720
3930 6324
3930 7011
3930 7446
3930 8090
3930 8473
3930 8721
3931 6325
3931 7012
3931 7447
3931 8091
3931 8474
3931 8722
3932 6326
3932 7013
3932 7448
3932 8092
3932 8475
3932 8723
3933 6327
3933 7014
3933 7449
3933 8093
3933 8313
3933 8724
3934 6328
3934 7015
3934 7450
3934 8094
3934 8314
3934 8725
3935 6329
3935 7016
3935 7451
3935 8095
3935 8315
3935 8726
3936 6330
3936 7017
3936 7452
3936 8096
3936 8316
3936 8727
3937 6331
3937 7018
3937 7453
3937 8097
3937 8317
3937 8728
3938 6332
3938 7019
3938 7454
3938 8098
3938 8318
3938 8729
3939 6333
3939 7020
3939 7455
3939 8099
3939 8319
3939 8730
3940 6334
3940 7021
3940 7456
3940 8100
3940 8320
3940 8731
3941 6335
3941 7022
3941 7457
3941 8101
3941 8321
3941 8732
3942 6336
3942 7023
3942 7458
3942 8102
3942 8322
3942 8733
3943 6337
3943 7024
3943 7459
3943 8103
3943 8323
3943 8734
3944 6338
3944 7025
3944 7460
3944 8104
3944 8324
3944 8735
3945 6339
3945 7026
3945 7461
3945 8105
3945 8325
3945 8736
3946 6340
3946 7027
3946 7462
3946 8106
3946 8326
3946 8737
3947 6341
3947 7028
3947 7463
3947 8107
3947 8327
3947 8738
3948 6342
3948 7029
3948 7464
3948 8108
3948 8328
3948 8739
3949 6343
3949 7030
3949 7465
3949 8109
3949 8329
3949 8740
3950 6344
3950 7031
3950 7466
3950 8110
3950 8330
3950 8741
3951 6345
3951 7032
3951 7467
3951 8111
3951 8331
3951 8742
3952 6346
3952 7033
3952 7468
3952 8112
3952 8332
3952 8743
3953 6347
3953 7034
3953 7469
3953 8113
3953 8333
3953 8744
3954 6348
3954 7035
3954 7470
3954 8114
3954 8334
3954 8745
3955 6349
3955 7036
3955 7471
3955 8115
3955 8335
3955 8746
3956 6350
3956 7037
3956 7472
3956 8116
3956 8336
3956 8747
3957 6351
3957 7038
3957 7473
3957 8117
3957 8337
3957 8748
3958 6352
3958 7039
3958 7474
3958 8118
3958 8338
3958 8749
3959 6353
3959 7040
3959 7475
3959 8119
3959 8339
3959 8750
3960 6354
3960 7041
3960 7476
3960 8120
3960 8340
3960 8751
3961 6355
3961 7042
3961 7477
3961 8121
3961 8341
3961 8752
3962 6356
3962 7043
3962 7478
3962 8122
3962 8342
3962 8753
3963 6194
3963 7044
3963 7479
3963 8123
3963 8343
3963 8754
3964 6195
3964 7045
3964 7480
3964 8124
3964 8344
3964 8755
3965 6196
3965 7046
3965 7481
3965 8125
3965 8345
3965 8756
3966 6197
3966 7047
3966 7482
3966 8126
3966 8346
3966 8757
3967 6198
3967 7048
3967 7483
3967 8127
3967 8347
3967 8758
3968 6199
3968 7049
3968 7484
3968 8128
3968 8348
3968 8759
3969 6200
3969 7050
3969 7485
3969 8129
3969 8349
3969 8760
3970 6201
3970 7051
3970 7486
3970 8130
3970 8350
3970 8761
3971 6202
3971 7052
3971 7487
3971 8131
3971 8351
3971 8762
3972 6203
3972 7053
3972 7488
3972 8132
3972 8352
3972 8763
3973 6204
3973 7054
3973 7489
3973 8133
3973 8353
3973 8764
3974 6205
3974 7055
3974 7490
3974 8134
3974 8354
3974 8765
3975 6206
3975 7056
3975 7491
3975 8135
3975 8355
3975 8766
3976 6207
3976 7057
3976 7492
3976 8136
3976 8356
3976 8767
3977 6208
3977 7058
3977 7493
3977 8137
3977 8357
3977 8768
3978 6209
3978 7059
3978 7494
3978 8138
3978 8358
3978 8769
3979 6210
3979 7060
3979 7495
3979 8139
3979 8359
3979 8770
3980 6211
3980 7061
3980 7496
3980 8140
3980 8360
3980 8771
3981 6212
3981 7062
3981 7497
3981 8141
3981 8361
3981 8772
3982 6213
3982 7063
3982 7335
3982 8142
3982 8362
3982 8773
3983 6214
3983 7064
3983 7336
3983 8143
3983 8363
3983 8774
3984 6215
3984 7065
3984 7337
3984 8144
3984 8364
3984 8775
3985 6216
3985 7066
3985 7338
3985 8145
3985 8365
3985 8776
3986 6217
3986 7067
3986 7339
3986 8146
3986 8366
3986 8777
3987 6218
3987 7068
3987 7340
3987 8147
3987 8367
3987 8778
3988 6219
3988 7069
3988 7341
3988 8148
3988 8368
3988 8779
3989 6220
3989 7070
3989 7342
3989 8149
3989 8369
3989 8780
3990 6221
3990 7071
3990 7343
3990 7987
3990 8370
3990 8781
3991 6222
3991 7072
3991 7344
3991 7988
3991 8371
3991 8782
3992 6223
3992 7073
3992 7345
3992 7989
3992 8372
3992 8783
3993 6224
3993 7074
3993 7346
3993 7990
3993 8373
3993 8784
3994 6225
3994 7075
3994 7347
3994 7991
3994 8374
3994 8785
3995 6226
3995 7076
3995 7348
3995 7992
3995 8375
3995 8786
3996 6227
3996 7077
3996 7349
3996 7993
3996 8376
3996 8787
3997 6228
3997 7078
3997 7350
3997 7994
3997 8377
3997 8788
3998 6229
3998 7079
3998 7351
3998 7995
3998 8378
3998 8789
3999 6230
3999 7080
3999 7352
3999 7996
3999 8379
3999 8790
4000 6231
4000 7081
4000 7353
4000 7997
4000 8380
4000 8791
4001 6232
4001 7082
4001 7354
4001 7998
4001 8381
4001 8792
4002 6233
4002 7083
4002 7355
4002 7999
4002 8382
4002 8793
4003 6234
4003 7084
4003 7356
4003 8000
4003 8383
4003 8794
4004 6235
4004 7085
4004 7357
4004 8001
4004 8384
4004 8795
4005 6236
4005 7086
4005 7358
4005 8002
4005 8385
4005 8796
4006 6237
4006 7087
4006 7359
4006 8003
4006 8386
4006 8797
4007 6238
4007 7088
4007 7360
4007 8004
4007 8387
4007 8798
4008 6239
4008 7089
4008 7361
4008 8005
4008 8388
4008 8799
4009 6240
4009 7090
4009 7362
4009 8006
4009 8389
4009 8800
4010 6241
4010 7091
4010 7363
4010 8007
4010 8390
4010 8801
4011 6242
4011 7092
4011 7364
4011 8008
4011 8391
4011 8639
4012 6243
4012 7093
4012 7365
4012 8009
4012 8392
4012 8640
4013 6244
4013 7094
4013 7366
4013 8010
4013 8393
4013 8641
4014 6245
4014 7095
4014 7367
4014 8011
4014 8394
4014 8642
4015 6246
4015 7096
4015 7368
4015 8012
4015 8395
4015 8643
4016 6247
4016 7097
4016 7369
4016 8013
4016 8396
4016 8644
4017 6248
4017 7098
4017 7370
4017 8014
4017 8397
4017 8645
4018 6249
4018 7099
4018 7371
4018 8015
4018 8398
4018 8646
4019 6250
4019 7100
4019 7372
4019 8016
4019 8399
4019 8647
4020 6251
4020 7101
4020 7373
4020 8017
4020 8400
4020 8648
4021 6252
4021 7102
4021 7374
4021 8018
4021 8401
4021 8649
4022 6253
4022 7103
4022 7375
4022 8019
4022 8402
4022 8650
4023 6254
4023 7104
4023 7376
4023 8020
4023 8403
4023 8651
4024 6255
4024 7105
4024 7377
4024 8021
4024 8404
4024 8652
4025 6256
4025 7106
4025 7378
4025 8022
4025 8405
4025 8653
4026 6257
4026 7107
4026 7379
4026 8023
4026 8406
4026 8654
4027 6258
4027 7108
4027 7380
4027 8024
4027 8407
4027 8655
4028 6259
4028 7109
4028 7381
4028 8025
4028 8408
4028 8656
4029 6260
4029 7110
4029 7382
4029 8026
4029 8409
4029 8657
4030 6261
4030 7111
4030 7383
4030 8027
4030 8410
4030 8658
4031 6262
4031 7112
4031 7384
4031 8028
4031 8411
4031 8659
4032 6263
4032 7113
4032 7385
4032 8029
4032 8412
4032 8660
4033 6264
4033 7114
4033 7386
4033 8030
4033 8413
4033 8661
4034 6265
4034 7115
4034 7387
4034 8031
4034 8414
4034 8662
4035 6266
4035 7116
4035 7388
4035 8032
4035 8415
4035 8663
4036 6267
4036 7117
4036 7389
4036 8033
4036 8416
4036 8664
4037 6268
4037 7118
4037 7390
4037 8034
4037 8417
4037 8665
4038 6269
4038 7119
4038 7391
4038 8035
4038 8418
4038 8666
4039 6270
4039 7120
4039 7392
4039 8036
4039 8419
4039 8667
4040 6271
4040 7121
4040 7393
4040 8037
4040 8420
4040 8668
4041 6272
4041 7122
4041 7394
4041 8038
4041 8421
4041 8669
4042 6273
4042 7123
4042 7395
4042 8039
4042 8422
4042 8670
4043 6274
4043 7124
4043 7396
4043 8040
4043 8423
4043 8671
4044 6275
4044 7125
4044 7397
4044 8041
4044 8424
4044 8672
4045 6276
4045 7126
4045 7398
4045 8042
4045 8425
4045 8673
4046 6277
4046 7127
4046 7399
4046 8043
4046 8426
4046 8674
4047 6278
4047 7128
4047 7400
4047 8044
4047 8427
4047 8675
4048 6279
4048 7129
4048 7401
4048 8045
4048 8428
4048 8676
4049 6280
4049 7130
4049 7402
4049 8046
4049 8429
4049 8677
4050 6281
4050 7131
4050 7403
4050 8047
4050 8430
4050 8678
4051 6282
4051 7132
4051 7404
4051 8048
4051 8431
4051 8679
4052 6283
4052 7133
4052 7405
4052 8049
4052 8432
4052 8680
4053 6284
4053 7134
4053 7406
4053 8050
4053 8433
4053 8681
4054 6285
4054 7135
4054 7407
4054 8051
4054 8434
4054 8682
4055 6286
4055 7136
4055 7408
4055 8052
4055 8435
4055 8683
4056 6287
4056 7137
4056 7409
4056 8053
4056 8436
4056 8684
4057 6288
4057 7138
4057 7410
4057 8054
4057 8437
4057 8685
4058 6289
4058 7139
4058 7411
4058 8055
4058 8438
4058 8686
4059 6290
4059 7140
4059 7412
4059 8056
4059 8439
4059 8687
4060 6291
4060 7141
4060 7413
4060 8057
4060 8440
4060 8688
4061 6292
4061 7142
4061 7414
4061 8058
4061 8441
4061 8689
4062 6293
4062 7143
4062 7415
4062 8059
4062 8442
4062 8690
4063 6294
4063 7144
4063 7416
4063 8060
4063 8443
4063 8691
4064 6295
4064 7145
4064 7417
4064 8061
4064 8444
4064 8692
4065 6296
4065 7146
4065 7418
4065 8062
4065 8445
4065 8693
4066 6297
4066 7147
4066 7419
4066 8063
4066 8446
4066 8694
4067 6298
4067 7148
4067 7420
4067 8064
4067 8447
4067 8695
4068 6299
4068 7149
4068 7421
4068 8065
4068 8448
4068 8696
4069 6300
4069 7150
4069 7422
4069 8066
4069 8449
4069 8697
4070 6301
4070 7151
4070 7423
4070 8067
4070 8450
4070 8698
4071 6302
4071 7152
4071 7424
4071 8068
4071 8451
4071 8699
4072 6303
4072 7153
4072 7425
4072 8069
4072 8452
4072 8700
4073 6304
4073 7154
4073 7426
4073 8070
4073 8453
4073 8701
4074 6305
4074 7155
4074 7427
4074 8071
4074 8454
4074 8702
4075 6501
4075 7198
4075 7571
4075 8236
4075 8612
4076 6502
4076 7199
4076 7572
4076 8237
4076 8613
4077 6503
4077 7200
4077 7573
4077 8238
4077 8614
4078 6504
4078 7201
4078 7574
4078 8239
4078 8615
4079 6505
4079 7202
4079 7575
4079 8240
4079 8616
4080 6506
4080 7203
4080 7576
4080 8241
4080 8617
4081 6507
4081 7204
4081 7577
4081 8242
4081 8618
4082 6508
4082 7205
4082 7578
4082 8243
4082 8619
4083 6509
4083 7206
4083 7579
4083 8244
4083 8620
4084 6510
4084 7207
4084 7580
4084 8245
4084 8621
4085 6511
4085 7208
4085 7581
4085 8246
4085 8622
4086 6512
4086 7209
4086 7582
4086 8247
4086 8623
4087 6513
4087 7210
4087 7583
4087 8248
4087 8624
4088 6514
4088 7211
4088 7584
4088 8249
4088 8625
4089 6515
4089 7212
4089 7585
4089 8250
4089 8626
4090 6516
4090 7213
4090 7586
4090 8251
4090 8627
4091 6517
4091 7214
4091 7587
4091 8252
4091 8628
4092 6518
4092 7215
4092 7588
4092 8253
4092 8629
4093 6519
4093 7216
4093 7589
4093 8254
4093 8630
4094 6357
4094 7217
4094 7590
4094 8255
4094 8631
4095 6358
4095 7218
4095 7591
4095 8256
4095 8632
4096 6359
4096 7219
4096 7592
4096 8257
4096 8633
4097 6360
4097 7220
4097 7593
4097 8258
4097 8634
4098 6361
4098 7221
4098 7594
4098 8259
4098 8635
4099 6362
4099 7222
4099 7595
4099 8260
4099 8636
4100 6363
4100 7223
4100 7596
4100 8261
4100 8637
4101 6364
4101 7224
4101 7597
4101 8262
4101 8638
4102 6365
4102 7225
4102 7598
4102 8263
4102 8476
4103 6366
4103 7226
4103 7599
4103 8264
4103 8477
4104 6367
4104 7227
4104 7600
4104 8265
4104 8478
4105 6368
4105 7228
4105 7601
4105 8266
4105 8479
4106 6369
4106 7229
4106 7602
4106 8267
4106 8480
4107 6370
4107 7230
4107 7603
4107 8268
4107 8481
4108 6371
4108 7231
4108 7604
4108 8269
4108 8482
4109 6372
4109 7232
4109 7605
4109 8270
4109 8483
4110 6373
4110 7233
4110 7606
4110 8271
4110 8484
4111 6374
4111 7234
4111 7607
4111 8272
4111 8485
4112 6375
4112 7235
4112 7608
4112 8273
4112 8486
4113 6376
4113 7236
4113 7609
4113 8274
4113 8487
4114 6377
4114 7237
4114 7610
4114 8275
4114 8488
4115 6378
4115 7238
4115 7611
4115 8276
4115 8489
4116 6379
4116 7239
4116 7612
4116 8277
4116 8490
4117 6380
4117 7240
4117 7613
4117 8278
4117 8491
4118 6381
4118 7241
4118 7614
4118 8279
4118 8492
4119 6382
4119 7242
4119 7615
4119 8280
4119 8493
4120 6383
4120 7243
4120 7616
4120 8281
4120 8494
4121 6384
4121 7244
4121 7617
4121 8282
4121 8495
4122 6385
4122 7245
4122 7618
4122 8283
4122 8496
4123 6386
4123 7246
4123 7619
4123 8284
4123 8497
4124 6387
4124 7247
4124 7620
4124 8285
4124 8498
4125 6388
4125 7248
4125 7621
4125 8286
4125 8499
4126 6389
4126 7249
4126 7622
4126 8287
4126 8500
4127 6390
4127 7250
4127 7623
4127 8288
4127 8501
4128 6391
4128 7251
4128 7624
4128 8289
4128 8502
4129 6392
4129 7252
4129 7625
4129 8290
4129 8503
4130 6393
4130 7253
4130 7626
4130 8291
4130 8504
4131 6394
4131 7254
4131 7627
4131 8292
4131 8505
4132 6395
4132 7255
4132 7628
4132 8293
4132 8506
4133 6396
4133 7256
4133 7629
4133 8294
4133 8507
4134 6397
4134 7257
4134 7630
4134 8295
4134 8508
4135 6398
4135 7258
4135 7631
4135 8296
4135 8509
4136 6399
4136 7259
4136 7632
4136 8297
4136 8510
4137 6400
4137 7260
4137 7633
4137 8298
4137 8511
4138 6401
4138 7261
4138 7634
4138 8299
4138 8512
4139 6402
4139 7262
4139 7635
4139 8300
4139 8513
4140 6403
4140 7263
4140 7636
4140 8301
4140 8514
4141 6404
4141 7264
4141 7637
4141 8302
4141 8515
4142 6405
4142 7265
4142 7638
4142 8303
4142 8516
4143 6406
4143 7266
4143 7639
4143 8304
4143 8517
4144 6407
4144 7267
4144 7640
4144 8305
4144 8518
4145 6408
4145 7268
4145 7641
4145 8306
4145 8519
4146 6409
4146 7269
4146 7642
4146 8307
4146 8520
4147 6410
4147 7270
4147 7643
4147 8308
4147 8521
4148 6411
4148 7271
4148 7644
4148 8309
4148 8522
4149 6412
4149 7272
4149 7645
4149 8310
4149 8523
4150 6413
4150 7273
4150 7646
4150 8311
4150 8524
4151 6414
4151 7274
4151 7647
4151 8312
4151 8525
4152 6415
4152 7275
4152 7648
4152 8150
4152 8526
4153 6416
4153 7276
4153 7649
4153 8151
4153 8527
4154 6417
4154 7277
4154 7650
4154 8152
4154 8528
4155 6418
4155 7278
4155 7651
4155 8153
4155 8529
4156 6419
4156 7279
4156 7652
4156 8154
4156 8530
4157 6420
4157 7280
4157 7653
4157 8155
4157 8531
4158 6421
4158 7281
4158 7654
4158 8156
4158 8532
4159 6422
4159 7282
4159 7655
4159 8157
4159 8533
4160 6423
4160 7283
4160 7656
4160 8158
4160 8534
4161 6424
4161 7284
4161 7657
4161 8159
4161 8535
4162 6425
4162 7285
4162 7658
4162 8160
4162 8536
4163 6426
4163 7286
4163 7659
4163 8161
4163 8537
4164 6427
4164 7287
4164 7660
4164 8162
4164 8538
4165 6428
4165 7288
4165 7498
4165 8163
4165 8539
4166 6429
4166 7289
4166 7499
4166 8164
4166 8540
4167 6430
4167 7290
4167 7500
4167 8165
4167 8541
4168 6431
4168 7291
4168 7501
4168 8166
4168 8542
4169 6432
4169 7292
4169 7502
4169 8167
4169 8543
4170 6433
4170 7293
4170 7503
4170 8168
4170 8544
4171 6434
4171 7294
4171 7504
4171 8169
4171 8545
4172 6435
4172 7295
4172 7505
4172 8170
4172 8546
4173 6436
4173 7296
4173 7506
4173 8171
4173 8547
4174 6437
4174 7297
4174 7507
4174 8172
4174 8548
4175 6438
4175 7298
4175 7508
4175 8173
4175 8549
4176 6439
4176 7299
4176 7509
4176 8174
4176 8550
4177 6440
4177 7300
4177 7510
4177 8175
4177 8551
4178 6441
4178 7301
4178 7511
4178 8176
4178 8552
4179 6442
4179 7302
4179 7512
4179 8177
4179 8553
4180 6443
4180 7303
4180 7513
4180 8178
4180 8554
4181 6444
4181 7304
4181 7514
4181 8179
4181 8555
4182 6445
4182 7305
4182 7515
4182 8180
4182 8556
4183 6446
4183 7306
4183 7516
4183 8181
4183 8557
4184 6447
4184 7307
4184 7517
4184 8182
4184 8558
4185 6448
4185 7308
4185 7518
4185 8183
4185 8559
4186 6449
4186 7309
4186 7519
4186 8184
4186 8560
4187 6450
4187 7310
4187 7520
4187 8185
4187 8561
4188 6451
4188 7311
4188 7521
4188 8186
4188 8562
4189 6452
4189 7312
4189 7522
4189 8187
4189 8563
4190 6453
4190 7313
4190 7523
4190 8188
4190 8564
4191 6454
4191 7314
4191 7524
4191 8189
4191 8565
4192 6455
4192 7315
4192 7525
4192 8190
4192 8566
4193 6456
4193 7316
4193 7526
4193 8191
4193 8567
4194 6457
4194 7317
4194 7527
4194 8192
4194 8568
4195 6458
4195 7318
4195 7528
4195 8193
4195 8569
4196 6459
4196 7319
4196 7529
4196 8194
4196 8570
4197 6460
4197 7320
4197 7530
4197 8195
4197 8571
4198 6461
4198 7321
4198 7531
4198 8196
4198 8572
4199 6462
4199 7322
4199 7532
4199 8197
4199 8573
4200 6463
4200 7323
4200 7533
4200 8198
4200 8574
4201 6464
4201 7324
4201 7534
4201 8199
4201 8575
4202 6465
4202 7325
4202 7535
4202 8200
4202 8576
4203 6466
4203 7326
4203 7536
4203 8201
4203 8577
4204 6467
4204 7327
4204 7537
4204 8202
4204 8578
4205 6468
4205 7328
4205 7538
4205 8203
4205 8579
4206 6469
4206 7329
4206 7539
4206 8204
4206 8580
4207 6470
4207 7330
4207 7540
4207 8205
4207 8581
4208 6471
4208 7331
4208 7541
4208 8206
4208 8582
4209 6472
4209 7332
4209 7542
4209 8207
4209 8583
4210 6473
4210 7333
4210 7543
4210 8208
4210 8584
4211 6474
4211 7334
4211 7544
4211 8209
4211 8585
4212 6475
4212 7172
4212 7545
4212 8210
4212 8586
4213 6476
4213 7173
4213 7546
4213 8211
4213 8587
4214 6477
4214 7174
4214 7547
4214 8212
4214 8588
4215 6478
4215 7175
4215 7548
4215 8213
4215 8589
4216 6479
4216 7176
4216 7549
4216 8214
4216 8590
4217 6480
4217 7177
4217 7550
4217 8215
4217 8591
4218 6481
4218 7178
4218 7551
4218 8216
4218 8592
4219 6482
4219 7179
4219 7552
4219 8217
4219 8593
4220 6483
4220 7180
4220 7553
4220 8218
4220 8594
4221 6484
4221 7181
4221 7554
4221 8219
4221 8595
4222 6485
4222 7182
4222 7555
4222 8220
4222 8596
4223 6486
4223 7183
4223 7556
4223 8221
4223 8597
4224 6487
4224 7184
4224 7557
4224 8222
4224 8598
4225 6488
4225 7185
4225 7558
4225 8223
4225 8599
4226 6489
4226 7186
4226 7559
4226 8224
4226 8600
4227 6490
4227 7187
4227 7560
4227 8225
4227 8601
4228 6491
4228 7188
4228 7561
4228 8226
4228 8602
4229 6492
4229 7189
4229 7562
4229 8227
4229 8603
4230 6493
4230 7190
4230 7563
4230 8228
4230 8604
4231 6494
4231 7191
4231 7564
4231 8229
4231 8605
4232 6495
4232 7192
4232 7565
4232 8230
4232 8606
4233 6496
4233 7193
4233 7566
4233 8231
4233 8607
4234 6497
4234 7194
4234 7567
4234 8232
4234 8608
4235 6498
4235 7195
4235 7568
4235 8233
4235 8609
4236 6499
4236 7196
4236 7569
4236 8234
4236 8610
4237 6500
4237 7197
4237 7570
4237 8235
4237 8611
4238 6612
4238 7415
4238 7685
4238 8377
4238 8744
4239 6613
4239 7416
4239 7686
4239 8378
4239 8745
4240 6614
4240 7417
4240 7687
4240 8379
4240 8746
4241 6615
4241 7418
4241 7688
4241 8380
4241 8747
4242 6616
4242 7419
4242 7689
4242 8381
4242 8748
4243 6617
4243 7420
4243 7690
4243 8382
4243 8749
4244 6618
4244 7421
4244 7691
4244 8383
4244 8750
4245 6619
4245 7422
4245 7692
4245 8384
4245 8751
4246 6620
4246 7423
4246 7693
4246 8385
4246 8752
4247 6621
4247 7424
4247 7694
4247 8386
4247 8753
4248 6622
4248 7425
4248 7695
4248 8387
4248 8754
4249 6623
4249 7426
4249 7696
4249 8388
4249 8755
4250 6624
4250 7427
4250 7697
4250 8389
4250 8756
4251 6625
4251 7428
4251 7698
4251 8390
4251 8757
4252 6626
4252 7429
4252 7699
4252 8391
4252 8758
4253 6627
4253 7430
4253 7700
4253 8392
4253 8759
4254 6628
4254 7431
4254 7701
4254 8393
4254 8760
4255 6629
4255 7432
4255 7702
4255 8394
4255 8761
4256 6630
4256 7433
4256 7703
4256 8395
4256 8762
4257 6631
4257 7434
4257 7704
4257 8396
4257 8763
4258 6632
4258 7435
4258 7705
4258 8397
4258 8764
4259 6633
4259 7436
4259 7706
4259 8398
4259 8765
4260 6634
4260 7437
4260 7707
4260 8399
4260 8766
4261 6635
4261 7438
4261 7708
4261 8400
4261 8767
4262 6636
4262 7439
4262 7709
4262 8401
4262 8768
4263 6637
4263 7440
4263 7710
4263 8402
4263 8769
4264 6638
4264 7441
4264 7711
4264 8403
4264 8770
4265 6639
4265 7442
4265 7712
4265 8404
4265 8771
4266 6640
4266 7443
4266 7713
4266 8405
4266 8772
4267 6641
4267 7444
4267 7714
4267 8406
4267 8773
4268 6642
4268 7445
4268 7715
4268 8407
4268 8774
4269 6643
4269 7446
4269 7716
4269 8408
4269 8775
4270 6644
4270 7447
4270 7717
4270 8409
4270 8776
4271 6645
4271 7448
4271 7718
4271 8410
4271 8777
4272 6646
4272 7449
4272 7719
4272 8411
4272 8778
4273 6647
4273 7450
4273 7720
4273 8412
4273 8779
4274 6648
4274 7451
4274 7721
4274 8413
4274 8780
4275 6649
4275 7452
4275 7722
4275 8414
4275 8781
4276 6650
4276 7453
4276 7723
4276 8415
4276 8782
4277 6651
4277 7454
4277 7724
4277 8416
4277 8783
4278 6652
4278 7455
4278 7725
4278 8417
4278 8784
4279 6653
4279 7456
4279 7726
4279 8418
4279 8785
4280 6654
4280 7457
4280 7727
4280 8419
4280 8786
4281 6655
4281 7458
4281 7728
4281 8420
4281 8787
4282 6656
4282 7459
4282 7729
4282 8421
4282 8788
4283 6657
4283 7460
4283 7730
4283 8422
4283 8789
4284 6658
4284 7461
4284 7731
4284 8423
4284 8790
4285 6659
4285 7462
4285 7732
4285 8424
4285 8791
4286 6660
4286 7463
4286 7733
4286 8425
4286 8792
4287 6661
4287 7464
4287 7734
4287 8426
4287 8793
4288 6662
4288 7465
4288 7735
4288 8427
4288 8794
4289 6663
4289 7466
4289 7736
4289 8428
4289 8795
4290 6664
4290 7467
4290 7737
4290 8429
4290 8796
4291 6665
4291 7468
4291 7738
4291 8430
4291 8797
4292 6666
4292 7469
4292 7739
4292 8431
4292 8798
4293 6667
4293 7470
4293 7740
4293 8432
4293 8799
4294 6668
4294 7471
4294 7741
4294 8433
4294 8800
4295 6669
4295 7472
4295 7742
4295 8434
4295 8801
4296 6670
4296 7473
4296 7743
4296 8435
4296 8639
4297 6671
4297 7474
4297 7744
4297 8436
4297 8640
4298 6672
4298 7475
4298 7745
4298 8437
4298 8641
4299 6673
4299 7476
4299 7746
4299 8438
4299 8642
4300 6674
4300 7477
4300 7747
4300 8439
4300 8643
4301 6675
4301 7478
4301 7748
4301 8440
4301 8644
4302 6676
4302 7479
4302 7749
4302 8441
4302 8645
4303 6677
4303 7480
4303 7750
4303 8442
4303 8646
4304 6678
4304 7481
4304 7751
4304 8443
4304 8647
4305 6679
4305 7482
4305 7752
4305 8444
4305 8648
4306 6680
4306 7483
4306 7753
4306 8445
4306 8649
4307 6681
4307 7484
4307 7754
4307 8446
4307 8650
4308 6682
4308 7485
4308 7755
4308 8447
4308 8651
4309 6520
4309 7486
4309 7756
4309 8448
4309 8652
4310 6521
4310 7487
4310 7757
4310 8449
4310 8653
4311 6522
4311 7488
4311 7758
4311 8450
4311 8654
4312 6523
4312 7489
4312 7759
4312 8451
4312 8655
4313 6524
4313 7490
4313 7760
4313 8452
4313 8656
4314 6525
4314 7491
4314 7761
4314 8453
4314 8657
4315 6526
4315 7492
4315 7762
4315 8454
4315 8658
4316 6527
4316 7493
4316 7763
4316 8455
4316 8659
4317 6528
4317 7494
4317 7764
4317 8456
4317 8660
4318 6529
4318 7495
4318 7765
4318 8457
4318 8661
4319 6530
4319 7496
4319 7766
4319 8458
4319 8662
4320 6531
4320 7497
4320 7767
4320 8459
4320 8663
4321 6532
4321 7335
4321 7768
4321 8460
4321 8664
4322 6533
4322 7336
4322 7769
4322 8461
4322 8665
4323 6534
4323 7337
4323 7770
4323 8462
4323 8666
4324 6535
4324 7338
4324 7771
4324 8463
4324 8667
4325 6536
4325 7339
4325 7772
4325 8464
4325 8668
4326 6537
4326 7340
4326 7773
4326 8465
4326 8669
4327 6538
4327 7341
4327 7774
4327 8466
4327 8670
4328 6539
4328 7342
4328 7775
4328 8467
4328 8671
4329 6540
4329 7343
4329 7776
4329 8468
4329 8672
4330 6541
4330 7344
4330 7777
4330 8469
4330 8673
4331 6542
4331 7345
4331 7778
4331 8470
4331 8674
4332 6543
4332 7346
4332 7779
4332 8471
4332 8675
4333 6544
4333 7347
4333 7780
4333 8472
4333 8676
4334 6545
4334 7348
4334 7781
4334 8473
4334 8677
4335 6546
4335 7349
4335 7782
4335 8474
4335 8678
4336 6547
4336 7350
4336 7783
4336 8475
4336 8679
4337 6548
4337 7351
4337 7784
4337 8313
4337 8680
4338 6549
4338 7352
4338 7785
4338 8314
4338 8681
4339 6550
4339 7353
4339 7786
4339 8315
4339 8682
4340 6551
4340 7354
4340 7787
4340 8316
4340 8683
4341 6552
4341 7355
4341 7788
4341 8317
4341 8684
4342 6553
4342 7356
4342 7789
4342 8318
4342 8685
4343 6554
4343 7357
4343 7790
4343 8319
4343 8686
4344 6555
4344 7358
4344 7791
4344 8320
4344 8687
4345 6556
4345 7359
4345 7792
4345 8321
4345 8688
4346 6557
4346 7360
4346 7793
4346 8322
4346 8689
4347 6558
4347 7361
4347 7794
4347 8323
4347 8690
4348 6559
4348 7362
4348 7795
4348 8324
4348 8691
4349 6560
4349 7363
4349 7796
4349 8325
4349 8692
4350 6561
4350 7364
4350 7797
4350 8326
4350 8693
4351 6562
4351 7365
4351 7798
4351 8327
4351 8694
4352 6563
4352 7366
4352 7799
4352 8328
4352 8695
4353 6564
4353 7367
4353 7800
4353 8329
4353 8696
4354 6565
4354 7368
4354 7801
4354 8330
4354 8697
4355 6566
4355 7369
4355 7802
4355 8331
4355 8698
4356 6567
4356 7370
4356 7803
4356 8332
4356 8699
4357 6568
4357 7371
4357 7804
4357 8333
4357 8700
4358 6569
4358 7372
4358 7805
4358 8334
4358 8701
4359 6570
4359 7373
4359 7806
4359 8335
4359 8702
4360 6571
4360 7374
4360 7807
4360 8336
4360 8703
4361 6572
4361 7375
4361 7808
4361 8337
4361 8704
4362 6573
4362 7376
4362 7809
4362 8338
4362 8705
4363 6574
4363 7377
4363 7810
4363 8339
4363 8706
4364 6575
4364 7378
4364 7811
4364 8340
4364 8707
4365 6576
4365 7379
4365 7812
4365 8341
4365 8708
4366 6577
4366 7380
4366 7813
4366 8342
4366 8709
4367 6578
4367 7381
4367 7814
4367 8343
4367 8710
4368 6579
4368 7382
4368 7815
4368 8344
4368 8711
4369 6580
4369 7383
4369 7816
4369 8345
4369 8712
4370 6581
4370 7384
4370 7817
4370 8346
4370 8713
4371 6582
4371 7385
4371 7818
4371 8347
4371 8714
4372 6583
4372 7386
4372 7819
4372 8348
4372 8715
4373 6584
4373 7387
4373 7820
4373 8349
4373 8716
4374 6585
4374 7388
4374 7821
4374 8350
4374 8717
4375 6586
4375 7389
4375 7822
4375 8351
4375 8718
4376 6587
4376 7390
4376 7823
4376 8352
4376 8719
4377 6588
4377 7391
4377 7661
4377 8353
4377 8720
4378 6589
4378 7392
4378 7662
4378 8354
4378 8721
4379 6590
4379 7393
4379 7663
4379 8355
4379 8722
4380 6591
4380 7394
4380 7664
4380 8356
4380 8723
4381 6592
4381 7395
4381 7665
4381 8357
4381 8724
4382 6593
4382 7396
4382 7666
4382 8358
4382 8725
4383 6594
4383 7397
4383 7667
4383 8359
4383 8726
4384 6595
4384 7398
4384 7668
4384 8360
4384 8727
4385 6596
4385 7399
4385 7669
4385 8361
4385 8728
4386 6597
4386 7400
4386 7670
4386 8362
4386 8729
4387 6598
4387 7401
4387 7671
4387 8363
4387 8730
4388 6599
4388 7402
4388 7672
4388 8364
4388 8731
4389 6600
4389 7403
4389 7673
4389 8365
4389 8732
4390 6601
4390 7404
4390 7674
4390 8366
4390 8733
4391 6602
4391 7405
4391 7675
4391 8367
4391 8734
4392 6603
4392 7406
4392 7676
4392 8368
4392 8735
4393 6604
4393 7407
4393 7677
4393 8369
4393 8736
4394 6605
4394 7408
4394 7678
4394 8370
4394 8737
4395 6606
4395 7409
4395 7679
4395 8371
4395 8738
4396 6607
4396 7410
4396 7680
4396 8372
4396 8739
4397 6608
4397 7411
4397 7681
4397 8373
4397 8740
4398 6609
4398 7412
4398 7682
4398 8374
4398 8741
4399 6610
4399 7413
4399 7683
4399 8375
4399 8742
4400 6611
4400 7414
4400 7684
4400 8376
4400 8743
4401 6778
4401 7531
4401 7948
4401 8535
4402 6779
4402 7532
4402 7949
4402 8536
4403 6780
4403 7533
4403 7950
4403 8537
4404 6781
4404 7534
4404 7951
4404 8538
4405 6782
4405 7535
4405 7952
4405 8539
4406 6783
4406 7536
4406 7953
4406 8540
4407 6784
4407 7537
4407 7954
4407 8541
4408 6785
4408 7538
4408 7955
4408 8542
4409 6786
4409 7539
4409 7956
4409 8543
4410 6787
4410 7540
4410 7957
4410 8544
4411 6788
4411 7541
4411 7958
4411 8545
4412 6789
4412 7542
4412 7959
4412 8546
4413 6790
4413 7543
4413 7960
4413 8547
4414 6791
4414 7544
4414 7961
4414 8548
4415 6792
4415 7545
4415 7962
4415 8549
4416 6793
4416 7546
4416 7963
4416 8550
4417 6794
4417 7547
4417 7964
4417 8551
4418 6795
4418 7548
4418 7965
4418 8552
4419 6796
4419 7549
4419 7966
4419 8553
4420 6797
4420 7550
4420 7967
4420 8554
4421 6798
4421 7551
4421 7968
4421 8555
4422 6799
4422 7552
4422 7969
4422 8556
4423 6800
4423 7553
4423 7970
4423 8557
4424 6801
4424 7554
4424 7971
4424 8558
4425 6802
4425 7555
4425 7972
4425 8559
4426 6803
4426 7556
4426 7973
4426 8560
4427 6804
4427 7557
4427 7974
4427 8561
4428 6805
4428 7558
4428 7975
4428 8562
4429 6806
4429 7559
4429 7976
4429 8563
4430 6807
4430 7560
4430 7977
4430 8564
4431 6808
4431 7561
4431 7978
4431 8565
4432 6809
4432 7562
4432 7979
4432 8566
4433 6810
4433 7563
4433 7980
4433 8567
4434 6811
4434 7564
4434 7981
4434 8568
4435 6812
4435 7565
4435 7982
4435 8569
4436 6813
4436 7566
4436 7983
4436 8570
4437 6814
4437 7567
4437 7984
4437 8571
4438 6815
4438 7568
4438 7985
4438 8572
4439 6816
4439 7569
4439 7986
4439 8573
4440 6817
4440 7570
4440 7824
4440 8574
4441 6818
4441 7571
4441 7825
4441 8575
4442 6819
4442 7572
4442 7826
4442 8576
4443 6820
4443 7573
4443 7827
4443 8577
4444 6821
4444 7574
4444 7828
4444 8578
4445 6822
4445 7575
4445 7829
4445 8579
4446 6823
4446 7576
4446 7830
4446 8580
4447 6824
4447 7577
4447 7831
4447 8581
4448 6825
4448 7578
4448 7832
4448 8582
4449 6826
4449 7579
4449 7833
4449 8583
4450 6827
4450 7580
4450 7834
4450 8584
4451 6828
4451 7581
4451 7835
4451 8585
4452 6829
4452 7582
4452 7836
4452 8586
4453 6830
4453 7583
4453 7837
4453 8587
4454 6831
4454 7584
4454 7838
4454 8588
4455 6832
4455 7585
4455 7839
4455 8589
4456 6833
4456 7586
4456 7840
4456 8590
4457 6834
4457 7587
4457 7841
4457 8591
4458 6835
4458 7588
4458 7842
4458 8592
4459 6836
4459 7589
4459 7843
4459 8593
4460 6837
4460 7590
4460 7844
4460 8594
4461 6838
4461 7591
4461 7845
4461 8595
4462 6839
4462 7592
4462 7846
4462 8596
4463 6840
4463 7593
4463 7847
4463 8597
4464 6841
4464 7594
4464 7848
4464 8598
4465 6842
4465 7595
4465 7849
4465 8599
4466 6843
4466 7596
4466 7850
4466 8600
4467 6844
4467 7597
4467 7851
4467 8601
4468 6845
4468 7598
4468 7852
4468 8602
4469 6683
4469 7599
4469 7853
4469 8603
4470 6684
4470 7600
4470 7854
4470 8604
4471 6685
4471 7601
4471 7855
4471 8605
4472 6686
4472 7602
4472 7856
4472 8606
4473 6687
4473 7603
4473 7857
4473 8607
4474 6688
4474 7604
4474 7858
4474 8608
4475 6689
4475 7605
4475 7859
4475 8609
4476 6690
4476 7606
4476 7860
4476 8610
4477 6691
4477 7607
4477 7861
4477 8611
4478 6692
4478 7608
4478 7862
4478 8612
4479 6693
4479 7609
4479 7863
4479 8613
4480 6694
4480 7610
4480 7864
4480 8614
4481 6695
4481 7611
4481 7865
4481 8615
4482 6696
4482 7612
4482 7866
4482 8616
4483 6697
4483 7613
4483 7867
4483 8617
4484 6698
4484 7614
4484 7868
4484 8618
4485 6699
4485 7615
4485 7869
4485 8619
4486 6700
4486 7616
4486 7870
4486 8620
4487 6701
4487 7617
4487 7871
4487 8621
4488 6702
4488 7618
4488 7872
4488 8622
4489 6703
4489 7619
4489 7873
4489 8623
4490 6704
4490 7620
4490 7874
4490 8624
4491 6705
4491 7621
4491 7875
4491 8625
4492 6706
4492 7622
4492 7876
4492 8626
4493 6707
4493 7623
4493 7877
4493 8627
4494 6708
4494 7624
4494 7878
4494 8628
4495 6709
4495 7625
4495 7879
4495 8629
4496 6710
4496 7626
4496 7880
4496 8630
4497 6711
4497 7627
4497 7881
4497 8631
4498 6712
4498 7628
4498 7882
4498 8632
4499 6713
4499 7629
4499 7883
4499 8633
4500 6714
4500 7630
4500 7884
4500 8634
4501 6715
4501 7631
4501 7885
4501 8635
4502 6716
4502 7632
4502 7886
4502 8636
4503 6717
4503 7633
4503 7887
4503 8637
4504 6718
4504 7634
4504 7888
4504 8638
4505 6719
4505 7635
4505 7889
4505 8476
4506 6720
4506 7636
4506 7890
4506 8477
4507 6721
4507 7637
4507 7891
4507 8478
4508 6722
4508 7638
4508 7892
4508 8479
4509 6723
4509 7639
4509 7893
4509 8480
4510 6724
4510 7640
4510 7894
4510 8481
4511 6725
4511 7641
4511 7895
4511 8482
4512 6726
4512 7642
4512 7896
4512 8483
4513 6727
4513 7643
4513 7897
4513 8484
4514 6728
4514 7644
4514 7898
4514 8485
4515 6729
4515 7645
4515 7899
4515 8486
4516 6730
4516 7646
4516 7900
4516 8487
4517 6731
4517 7647
4517 7901
4517 8488
4518 6732
4518 7648
4518 7902
4518 8489
4519 6733
4519 7649
4519 7903
4519 8490
4520 6734
4520 7650
4520 7904
4520 8491
4521 6735
4521 7651
4521 7905
4521 8492
4522 6736
4522 7652
4522 7906
4522 8493
4523 6737
4523 7653
4523 7907
4523 8494
4524 6738
4524 7654
4524 7908
4524 8495
4525 6739
4525 7655
4525 7909
4525 8496
4526 6740
4526 7656
4526 7910
4526 8497
4527 6741
4527 7657
4527 7911
4527 8498
4528 6742
4528 7658
4528 7912
4528 8499
4529 6743
4529 7659
4529 7913
4529 8500
4530 6744
4530 7660
4530 7914
4530 8501
4531 6745
4531 7498
4531 7915
4531 8502
4532 6746
4532 7499
4532 7916
4532 8503
4533 6747
4533 7500
4533 7917
4533 8504
4534 6748
4534 7501
4534 7918
4534 8505
4535 6749
4535 7502
4535 7919
4535 8506
4536 6750
4536 7503
4536 7920
4536 8507
4537 6751
4537 7504
4537 7921
4537 8508
4538 6752
4538 7505
4538 7922
4538 8509
4539 6753
4539 7506
4539 7923
4539 8510
4540 6754
4540 7507
4540 7924
4540 8511
4541 6755
4541 7508
4541 7925
4541 8512
4542 6756
4542 7509
4542 7926
4542 8513
4543 6757
4543 7510
4543 7927
4543 8514
4544 6758
4544 7511
4544 7928
4544 8515
4545 6759
4545 7512
4545 7929
4545 8516
4546 6760
4546 7513
4546 7930
4546 8517
4547 6761
4547 7514
4547 7931
4547 8518
4548 6762
4548 7515
4548 7932
4548 8519
4549 6763
4549 7516
4549 7933
4549 8520
4550 6764
4550 7517
4550 7934
4550 8521
4551 6765
4551 7518
4551 7935
4551 8522
4552 6766
4552 7519
4552 7936
4552 8523
4553 6767
4553 7520
4553 7937
4553 8524
4554 6768
4554 7521
4554 7938
4554 8525
4555 6769
4555 7522
4555 7939
4555 8526
4556 6770
4556 7523
4556 7940
4556 8527
4557 6771
4557 7524
4557 7941
4557 8528
4558 6772
4558 7525
4558 7942
4558 8529
4559 6773
4559 7526
4559 7943
4559 8530
4560 6774
4560 7527
4560 7944
4560 8531
4561 6775
4561 7528
4561 7945
4561 8532
4562 6776
4562 7529
4562 7946
4562 8533
4563 6777
4563 7530
4563 7947
4563 8534
4564 6875
4564 7750
4564 8030
4564 8645
4565 6876
4565 7751
4565 8031
4565 8646
4566 6877
4566 7752
4566 8032
4566 8647
4567 6878
4567 7753
4567 8033
4567 8648
4568 6879
4568 7754
4568 8034
4568 8649
4569 6880
4569 7755
4569 8035
4569 8650
4570 6881
4570 7756
4570 8036
4570 8651
4571 6882
4571 7757
4571 8037
4571 8652
4572 6883
4572 7758
4572 8038
4572 8653
4573 6884
4573 7759
4573 8039
4573 8654
4574 6885
4574 7760
4574 8040
4574 8655
4575 6886
4575 7761
4575 8041
4575 8656
4576 6887
4576 7762
4576 8042
4576 8657
4577 6888
4577 7763
4577 8043
4577 8658
4578 6889
4578 7764
4578 8044
4578 8659
4579 6890
4579 7765
4579 8045
4579 8660
4580 6891
4580 7766
4580 8046
4580 8661
4581 6892
4581 7767
4581 8047
4581 8662
4582 6893
4582 7768
4582 8048
4582 8663
4583 6894
4583 7769
4583 8049
4583 8664
4584 6895
4584 7770
4584 8050
4584 8665
4585 6896
4585 7771
4585 8051
4585 8666
4586 6897
4586 7772
4586 8052
4586 8667
4587 6898
4587 7773
4587 8053
4587 8668
4588 6899
4588 7774
4588 8054
4588 8669
4589 6900
4589 7775
4589 8055
4589 8670
4590 6901
4590 7776
4590 8056
4590 8671
4591 6902
4591 7777
4591 8057
4591 8672
4592 6903
4592 7778
4592 8058
4592 8673
4593 6904
4593 7779
4593 8059
4593 8674
4594 6905
4594 7780
4594 8060
4594 8675
4595 6906
4595 7781
4595 8061
4595 8676
4596 6907
4596 7782
4596 8062
4596 8677
4597 6908
4597 7783
4597 8063
4597 8678
4598 6909
4598 7784
4598 8064
4598 8679
4599 6910
4599 7785
4599 8065
4599 8680
4600 6911
4600 7786
4600 8066
4600 8681
4601 6912
4601 7787
4601 8067
4601 8682
4602 6913
4602 7788
4602 8068
4602 8683
4603 6914
4603 7789
4603 8069
4603 8684
4604 6915
4604 7790
4604 8070
4604 8685
4605 6916
4605 7791
4605 8071
4605 8686
4606 6917
4606 7792
4606 8072
4606 8687
4607 6918
4607 7793
4607 8073
4607 8688
4608 6919
4608 7794
4608 8074
4608 8689
4609 6920
4609 7795
4609 8075
4609 8690
4610 6921
4610 7796
4610 8076
4610 8691
4611 6922
4611 7797
4611 8077
4611 8692
4612 6923
4612 7798
4612 8078
4612 8693
4613 6924
4613 7799
4613 8079
4613 8694
4614 6925
4614 7800
4614 8080
4614 8695
4615 6926
4615 7801
4615 8081
4615 8696
4616 6927
4616 7802
4616 8082
4616 8697
4617 6928
4617 7803
4617 8083
4617 8698
4618 6929
4618 7804
4618 8084
4618 8699
4619 6930
4619 7805
4619 8085
4619 8700
4620 6931
4620 7806
4620 8086
4620 8701
4621 6932
4621 7807
4621 8087
4621 8702
4622 6933
4622 7808
4622 8088
4622 8703
4623 6934
4623 7809
4623 8089
4623 8704
4624 6935
4624 7810
4624 8090
4624 8705
4625 6936
4625 7811
4625 8091
4625 8706
4626 6937
4626 7812
4626 8092
4626 8707
4627 6938
4627 7813
4627 8093
4627 8708
4628 6939
4628 7814
4628 8094
4628 8709
4629 6940
4629 7815
4629 8095
4629 8710
4630 6941
4630 7816
4630 8096
4630 8711
4631 6942
4631 7817
4631 8097
4631 8712
4632 6943
4632 7818
4632 8098
4632 8713
4633 6944
4633 7819
4633 8099
4633 8714
4634 6945
4634 7820
4634 8100
4634 8715
4635 6946
4635 7821
4635 8101
4635 8716
4636 6947
4636 7822
4636 8102
4636 8717
4637 6948
4637 7823
4637 8103
4637 8718
4638 6949
4638 7661
4638 8104
4638 8719
4639 6950
4639 7662
4639 8105
4639 8720
4640 6951
4640 7663
4640 8106
4640 8721
4641 6952
4641 7664
4641 8107
4641 8722
4642 6953
4642 7665
4642 8108
4642 8723
4643 6954
4643 7666
4643 8109
4643 8724
4644 6955
4644 7667
4644 8110
4644 8725
4645 6956
4645 7668
4645 8111
4645 8726
4646 6957
4646 7669
4646 8112
4646 8727
4647 6958
4647 7670
4647 8113
4647 8728
4648 6959
4648 7671
4648 8114
4648 8729
4649 6960
4649 7672
4649 8115
4649 8730
4650 6961
4650 7673
4650 8116
4650 8731
4651 6962
4651 7674
4651 8117
4651 8732
4652 6963
4652 7675
4652 8118
4652 8733
4653 6964
4653 7676
4653 8119
4653 8734
4654 6965
4654 7677
4654 8120
4654 8735
4655 6966
4655 7678
4655 8121
4655 8736
4656 6967
4656 7679
4656 8122
4656 8737
4657 6968
4657 7680
4657 8123
4657 8738
4658 6969
4658 7681
4658 8124
4658 8739
4659 6970
4659 7682
4659 8125
4659 8740
4660 6971
4660 7683
4660 8126
4660 8741
4661 6972
4661 7684
4661 8127
4661 8742
4662 6973
4662 7685
4662 8128
4662 8743
4663 6974
4663 7686
4663 8129
4663 8744
4664 6975
4664 7687
4664 8130
4664 8745
4665 6976
4665 7688
4665 8131
4665 8746
4666 6977
4666 7689
4666 8132
4666 8747
4667 6978
4667 7690
4667 8133
4667 8748
4668 6979
4668 7691
4668 8134
4668 8749
4669 6980
4669 7692
4669 8135
4669 8750
4670 6981
4670 7693
4670 8136
4670 8751
4671 6982
4671 7694
4671 8137
4671 8752
4672 6983
4672 7695
4672 8138
4672 8753
4673 6984
4673 7696
4673 8139
4673 8754
4674 6985
4674 7697
4674 8140
4674 8755
4675 6986
4675 7698
4675 8141
4675 8756
4676 6987
4676 7699
4676 8142
4676 8757
4677 6988
4677 7700
4677 8143
4677 8758
4678 6989
4678 7701
4678 8144
4678 8759
4679 6990
4679 7702
4679 8145
4679 8760
4680 6991
4680 7703
4680 8146
4680 8761
4681 6992
4681 7704
4681 8147
4681 8762
4682 6993
4682 7705
4682 8148
4682 8763
4683 6994
4683 7706
4683 8149
4683 8764
4684 6995
4684 7707
4684 7987
4684 8765
4685 6996
4685 7708
4685 7988
4685 8766
4686 6997
4686 7709
4686 7989
4686 8767
4687 6998
4687 7710
4687 7990
4687 8768
4688 6999
4688 7711
4688 7991
4688 8769
4689 7000
4689 7712
4689 7992
4689 8770
4690 7001
4690 7713
4690 7993
4690 8771
4691 7002
4691 7714
4691 7994
4691 8772
4692 7003
4692 7715
4692 7995
4692 8773
4693 7004
4693 7716
4693 7996
4693 8774
4694 7005
4694 7717
4694 7997
4694 8775
4695 7006
4695 7718
4695 7998
4695 8776
4696 7007
4696 7719
4696 7999
4696 8777
4697 7008
4697 7720
4697 8000
4697 8778
4698 6846
4698 7721
4698 8001
4698 8779
4699 6847
4699 7722
4699 8002
4699 8780
4700 6848
4700 7723
4700 8003
4700 8781
4701 6849
4701 7724
4701 8004
4701 8782
4702 6850
4702 7725
4702 8005
4702 8783
4703 6851
4703 7726
4703 8006
4703 8784
4704 6852
4704 7727
4704 8007
4704 8785
4705 6853
4705 7728
4705 8008
4705 8786
4706 6854
4706 7729
4706 8009
4706 8787
4707 6855
4707 7730
4707 8010
4707 8788
4708 6856
4708 7731
4708 8011
4708 8789
4709 6857
4709 7732
4709 8012
4709 8790
4710 6858
4710 7733
4710 8013
4710 8791
4711 6859
4711 7734
4711 8014
4711 8792
4712 6860
4712 7735
4712 8015
4712 8793
4713 6861
4713 7736
4713 8016
4713 8794
4714 6862
4714 7737
4714 8017
4714 8795
4715 6863
4715 7738
4715 8018
4715 8796
4716 6864
4716 7739
4716 8019
4716 8797
4717 6865
4717 7740
4717 8020
4717 8798
4718 6866
4718 7741
4718 8021
4718 8799
4719 6867
4719 7742
4719 8022
4719 8800
4720 6868
4720 7743
4720 8023
4720 8801
4721 6869
4721 7744
4721 8024
4721 8639
4722 6870
4722 7745
4722 8025
4722 8640
4723 6871
4723 7746
4723 8026
4723 8641
4724 6872
4724 7747
4724 8027
4724 8642
4725 6873
4725 7748
4725 8028
4725 8643
4726 6874
4726 7749
4726 8029
4726 8644
4727 7023
4727 7985
4727 8182
4728 7024
4728 7986
4728 8183
4729 7025
4729 7824
4729 8184
4730 7026
4730 7825
4730 8185
4731 7027
4731 7826
4731 8186
4732 7028
4732 7827
4732 8187
4733 7029
4733 7828
4733 8188
4734 7030
4734 7829
4734 8189
4735 7031
4735 7830
4735 8190
4736 7032
4736 7831
4736 8191
4737 7033
4737 7832
4737 8192
4738 7034
4738 7833
4738 8193
4739 7035
4739 7834
4739 8194
4740 7036
4740 7835
4740 8195
4741 7037
4741 7836
4741 8196
4742 7038
4742 7837
4742 8197
4743 7039
4743 7838
4743 8198
4744 7040
4744 7839
4744 8199
4745 7041
4745 7840
4745 8200
4746 7042
4746 7841
4746 8201
4747 7043
4747 7842
4747 8202
4748 7044
4748 7843
4748 8203
4749 7045
4749 7844
4749 8204
4750 7046
4750 7845
4750 8205
4751 7047
4751 7846
4751 8206
4752 7048
4752 7847
4752 8207
4753 7049
4753 7848
4753 8208
4754 7050
4754 7849
4754 8209
4755 7051
4755 7850
4755 8210
4756 7052
4756 7851
4756 8211
4757 7053
4757 7852
4757 8212
4758 7054
4758 7853
4758 8213
4759 7055
4759 7854
4759 8214
4760 7056
4760 7855
4760 8215
4761 7057
4761 7856
4761 8216
4762 7058
4762 7857
4762 8217
4763 7059
4763 7858
4763 8218
4764 7060
4764 7859
4764 8219
4765 7061
4765 7860
4765 8220
4766 7062
4766 7861
4766 8221
4767 7063
4767 7862
4767 8222
4768 7064
4768 7863
4768 8223
4769 7065
4769 7864
4769 8224
4770 7066
4770 7865
4770 8225
4771 7067
4771 7866
4771 8226
4772 7068
4772 7867
4772 8227
4773 7069
4773 7868
4773 8228
4774 7070
4774 7869
4774 8229
4775 7071
4775 7870
4775 8230
4776 7072
4776 7871
4776 8231
4777 7073
4777 7872
4777 8232
4778 7074
4778 7873
4778 8233
4779 7075
4779 7874
4779 8234
4780 7076
4780 7875
4780 8235
4781 7077
4781 7876
4781 8236
4782 7078
4782 7877
4782 8237
4783 7079
4783 7878
4783 8238
4784 7080
4784 7879
4784 8239
4785 7081
4785 7880
4785 8240
4786 7082
4786 7881
4786 8241
4787 7083
4787 7882
4787 8242
4788 7084
4788 7883
4788 8243
4789 7085
4789 7884
4789 8244
4790 7086
4790 7885
4790 8245
4791 7087
4791 7886
4791 8246
4792 7088
4792 7887
4792 8247
4793 7089
4793 7888
4793 8248
4794 7090
4794 7889
4794 8249
4795 7091
4795 7890
4795 8250
4796 7092
4796 7891
4796 8251
4797 7093
4797 7892
4797 8252
4798 7094
4798 7893
4798 8253
4799 7095
4799 7894
4799 8254
4800 7096
4800 7895
4800 8255
4801 7097
4801 7896
4801 8256
4802 7098
4802 7897
4802 8257
4803 7099
4803 7898
4803 8258
4804 7100
4804 7899
4804 8259
4805 7101
4805 7900
4805 8260
4806 7102
4806 7901
4806 8261
4807 7103
4807 7902
4807 8262
4808 7104
4808 7903
4808 8263
4809 7105
4809 7904
4809 8264
4810 7106
4810 7905
4810 8265
4811 7107
4811 7906
4811 8266
4812 7108
4812 7907
4812 8267
4813 7109
4813 7908
4813 8268
4814 7110
4814 7909
4814 8269
4815 7111
4815 7910
4815 8270
4816 7112
4816 7911
4816 8271
4817 7113
4817 7912
4817 8272
4818 7114
4818 7913
4818 8273
4819 7115
4819 7914
4819 8274
4820 7116
4820 7915
4820 8275
4821 7117
4821 7916
4821 8276
4822 7118
4822 7917
4822 8277
4823 7119
4823 7918
4823 8278
4824 7120
4824 7919
4824 8279
4825 7121
4825 7920
4825 8280
4826 7122
4826 7921
4826 8281
4827 7123
4827 7922
4827 8282
4828 7124
4828 7923
4828 8283
4829 7125
4829 7924
4829 8284
4830 7126
4830 7925
4830 8285
4831 7127
4831 7926
4831 8286
4832 7128
4832 7927
4832 8287
4833 7129
4833 7928
4833 8288
4834 7130
4834 7929
4834 8289
4835 7131
4835 7930
4835 8290
4836 7132
4836 7931
4836 8291
4837 7133
4837 7932
4837 8292
4838 7134
4838 7933
4838 8293
4839 7135
4839 7934
4839 8294
4840 7136
4840 7935
4840 8295
4841 7137
4841 7936
4841 8296
4842 7138
4842 7937
4842 8297
4843 7139
4843 7938
4843 8298
4844 7140
4844 7939
4844 8299
4845 7141
4845 7940
4845 8300
4846 7142
4846 7941
4846 8301
4847 7143
4847 7942
4847 8302
4848 7144
4848 7943
4848 8303
4849 7145
4849 7944
4849 8304
4850 7146
4850 7945
4850 8305
4851 7147
4851 7946
4851 8306
4852 7148
4852 7947
4852 8307
4853 7149
4853 7948
4853 8308
4854 7150
4854 7949
4854 8309
4855 7151
4855 7950
4855 8310
4856 7152
4856 7951
4856 8311
4857 7153
4857 7952
4857 8312
4858 7154
4858 7953
4858 8150
4859 7155
4859 7954
4859 8151
4860 7156
4860 7955
4860 8152
4861 7157
4861 7956
4861 8153
4862 7158
4862 7957
4862 8154
4863 7159
4863 7958
4863 8155
4864 7160
4864 7959
4864 8156
4865 7161
4865 7960
4865 8157
4866 7162
4866 7961
4866 8158
4867 7163
4867 7962
4867 8159
4868 7164
4868 7963
4868 8160
4869 7165
4869 7964
4869 8161
4870 7166
4870 7965
4870 8162
4871 7167
4871 7966
4871 8163
4872 7168
4872 7967
4872 8164
4873 7169
4873 7968
4873 8165
4874 7170
4874 7969
4874 8166
4875 7171
4875 7970
4875 8167
4876 7009
4876 7971
4876 8168
4877 7010
4877 7972
4877 8169
4878 7011
4878 7973
4878 8170
4879 7012
4879 7974
4879 8171
4880 7013
4880 7975
4880 8172
4881 7014
4881 7976
4881 8173
4882 7015
4882 7977
4882 8174
4883 7016
4883 7978
4883 8175
4884 7017
4884 7979
4884 8176
4885 7018
4885 7980
4885 8177
4886 7019
4886 7981
4886 8178
4887 7020
4887 7982
4887 8179
4888 7021
4888 7983
4888 8180
4889 7022
4889 7984
4889 8181
4890 7190
4890 8031
4890 8424
4891 7191
4891 8032
4891 8425
4892 7192
4892 8033
4892 8426
4893 7193
4893 8034
4893 8427
4894 7194
4894 8035
4894 8428
4895 7195
4895 8036
4895 8429
4896 7196
4896 8037
4896 8430
4897 7197
4897 8038
4897 8431
4898 7198
4898 8039
4898 8432
4899 7199
4899 8040
4899 8433
4900 7200
4900 8041
4900 8434
4901 7201
4901 8042
4901 8435
4902 7202
4902 8043
4902 8436
4903 7203
4903 8044
4903 8437
4904 7204
4904 8045
4904 8438
4905 7205
4905 8046
4905 8439
4906 7206
4906 8047
4906 8440
4907 7207
4907 8048
4907 8441
4908 7208
4908 8049
4908 8442
4909 7209
4909 8050
4909 8443
4910 7210
4910 8051
4910 8444
4911 7211
4911 8052
4911 8445
4912 7212
4912 8053
4912 8446
4913 7213
4913 8054
4913 8447
4914 7214
4914 8055
4914 8448
4915 7215
4915 8056
4915 8449
4916 7216
4916 8057
4916 8450
4917 7217
4917 8058
4917 8451
4918 7218
4918 8059
4918 8452
4919 7219
4919 8060
4919 8453
4920 7220
4920 8061
4920 8454
4921 7221
4921 8062
4921 8455
4922 7222
4922 8063
4922 8456
4923 7223
4923 8064
4923 8457
4924 7224
4924 8065
4924 8458
4925 7225
4925 8066
4925 8459
4926 7226
4926 8067
4926 8460
4927 7227
4927 8068
4927 8461
4928 7228
4928 8069
4928 8462
4929 7229
4929 8070
4929 8463
4930 7230
4930 8071
4930 8464
4931 7231
4931 8072
4931 8465
4932 7232
4932 8073
4932 8466
4933 7233
4933 8074
4933 8467
4934 7234
4934 8075
4934 8468
4935 7235
4935 8076
4935 8469
4936 7236
4936 8077
4936 8470
4937 7237
4937 8078
4937 8471
4938 7238
4938 8079
4938 8472
4939 7239
4939 8080
4939 8473
4940 7240
4940 8081
4940 8474
4941 7241
4941 8082
4941 8475
4942 7242
4942 8083
4942 8313
4943 7243
4943 8084
4943 8314
4944 7244
4944 8085
4944 8315
4945 7245
4945 8086
4945 8316
4946 7246
4946 8087
4946 8317
4947 7247
4947 8088
4947 8318
4948 7248
4948 8089
4948 8319
4949 7249
4949 8090
4949 8320
4950 7250
4950 8091
4950 8321
4951 7251
4951 8092
4951 8322
4952 7252
4952 8093
4952 8323
4953 7253
4953 8094
4953 8324
4954 7254
4954 8095
4954 8325
4955 7255
4955 8096
4955 8326
4956 7256
4956 8097
4956 8327
4957 7257
4957 8098
4957 8328
4958 7258
4958 8099
4958 8329
4959 7259
4959 8100
4959 8330
4960 7260
4960 8101
4960 8331
4961 7261
4961 8102
4961 8332
4962 7262
4962 8103
4962 8333
4963 7263
4963 8104
4963 8334
4964 7264
4964 8105
4964 8335
4965 7265
4965 8106
4965 8336
4966 7266
4966 8107
4966 8337
4967 7267
4967 8108
4967 8338
4968 7268
4968 8109
4968 8339
4969 7269
4969 8110
4969 8340
4970 7270
4970 8111
4970 8341
4971 7271
4971 8112
4971 8342
4972 7272
4972 8113
4972 8343
4973 7273
4973 8114
4973 8344
4974 7274
4974 8115
4974 8345
4975 7275
4975 8116
4975 8346
4976 7276
4976 8117
4976 8347
4977 7277
4977 8118
4977 8348
4978 7278
4978 8119
4978 8349
4979 7279
4979 8120
4979 8350
4980 7280
4980 8121
4980 8351
4981 7281
4981 8122
4981 8352
4982 7282
4982 8123
4982 8353
4983 7283
4983 8124
4983 8354
4984 7284
4984 8125
4984 8355
4985 7285
4985 8126
4985 8356
4986 7286
4986 8127
4986 8357
4987 7287
4987 8128
4987 8358
4988 7288
4988 8129
4988 8359
4989 7289
4989 8130
4989 8360
4990 7290
4990 8131
4990 8361
4991 7291
4991 8132
4991 8362
4992 7292
4992 8133
4992 8363
4993 7293
4993 8134
4993 8364
4994 7294
4994 8135
4994 8365
4995 7295
4995 8136
4995 8366
4996 7296
4996 8137
4996 8367
4997 7297
4997 8138
4997 8368
4998 7298
4998 8139
4998 8369
4999 7299
4999 8140
4999 8370
5000 7300
5000 8141
5000 8371
5001 7301
5001 8142
5001 8372
5002 7302
5002 8143
5002 8373
5003 7303
5003 8144
5003 8374
5004 7304
5004 8145
5004 8375
5005 7305
5005 8146
5005 8376
5006 7306
5006 8147
5006 8377
5007 7307
5007 8148
5007 8378
5008 7308
5008 8149
5008 8379
5009 7309
5009 7987
5009 8380
5010 7310
5010 7988
5010 8381
5011 7311
5011 7989
5011 8382
5012 7312
5012 7990
5012 8383
5013 7313
5013 7991
5013 8384
5014 7314
5014 7992
5014 8385
5015 7315
5015 7993
5015 8386
5016 7316
5016 7994
5016 8387
5017 7317
5017 7995
5017 8388
5018 7318
5018 7996
5018 8389
5019 7319
5019 7997
5019 8390
5020 7320
5020 7998
5020 8391
5021 7321
5021 7999
5021 8392
5022 7322
5022 8000
5022 8393
5023 7323
5023 8001
5023 8394
5024 7324
5024 8002
5024 8395
5025 7325
5025 8003
5025 8396
5026 7326
5026 8004
5026 8397
5027 7327
5027 8005
5027 8398
5028 7328
5028 8006
5028 8399
5029 7329
5029 8007
5029 8400
5030 7330
5030 8008
5030 8401
5031 7331
5031 8009
5031 8402
5032 7332
5032 8010
5032 8403
5033 7333
5033 8011
5033 8404
5034 7334
5034 8012
5034 8405
5035 7172
5035 8013
5035 8406
5036 7173
5036 8014
5036 8407
5037 7174
5037 8015
5037 8408
5038 7175
5038 8016
5038 8409
5039 7176
5039 8017
5039 8410
5040 7177
5040 8018
5040 8411
5041 7178
5041 8019
5041 8412
5042 7179
5042 8020
5042 8413
5043 7180
5043 8021
5043 8414
5044 7181
5044 8022
5044 8415
5045 7182
5045 8023
5045 8416
5046 7183
5046 8024
5046 8417
5047 7184
5047 8025
5047 8418
5048 7185
5048 8026
5048 8419
5049 7186
5049 8027
5049 8420
5050 7187
5050 8028
5050 8421
5051 7188
5051 8029
5051 8422
5052 7189
5052 8030
5052 8423
5053 7428
5053 8160
5053 8479
5054 7429
5054 8161
5054 8480
5055 7430
5055 8162
5055 8481
5056 7431
5056 8163
5056 8482
5057 7432
5057 8164
5057 8483
5058 7433
5058 8165
5058 8484
5059 7434
5059 8166
5059 8485
5060 7435
5060 8167
5060 8486
5061 7436
5061 8168
5061 8487
5062 7437
5062 8169
5062 8488
5063 7438
5063 8170
5063 8489
5064 7439
5064 8171
5064 8490
5065 7440
5065 8172
5065 8491
5066 7441
5066 8173
5066 8492
5067 7442
5067 8174
5067 8493
5068 7443
5068 8175
5068 8494
5069 7444
5069 8176
5069 8495
5070 7445
5070 8177
5070 8496
5071 7446
5071 8178
5071 8497
5072 7447
5072 8179
5072 8498
5073 7448
5073 8180
5073 8499
5074 7449
5074 8181
5074 8500
5075 7450
5075 8182
5075 8501
5076 7451
5076 8183
5076 8502
5077 7452
5077 8184
5077 8503
5078 7453
5078 8185
5078 8504
5079 7454
5079 8186
5079 8505
5080 7455
5080 8187
5080 8506
5081 7456
5081 8188
5081 8507
5082 7457
5082 8189
5082 8508
5083 7458
5083 8190
5083 8509
5084 7459
5084 8191
5084 8510
5085 7460
5085 8192
5085 8511
5086 7461
5086 8193
5086 8512
5087 7462
5087 8194
5087 8513
5088 7463
5088 8195
5088 8514
5089 7464
5089 8196
5089 8515
5090 7465
5090 8197
5090 8516
5091 7466
5091 8198
5091 8517
5092 7467
5092 8199
5092 8518
5093 7468
5093 8200
5093 8519
5094 7469
5094 8201
5094 8520
5095 7470
5095 8202
5095 8521
5096 7471
5096 8203
5096 8522
5097 7472
5097 8204
5097 8523
5098 7473
5098 8205
5098 8524
5099 7474
5099 8206
5099 8525
5100 7475
5100 8207
5100 8526
5101 7476
5101 8208
5101 8527
5102 7477
5102 8209
5102 8528
5103 7478
5103 8210
5103 8529
5104 7479
5104 8211
5104 8530
5105 7480
5105 8212
5105 8531
5106 7481
5106 8213
5106 8532
5107 7482
5107 8214
5107 8533
5108 7483
5108 8215
5108 8534
5109 7484
5109 8216
5109 8535
5110 7485
5110 8217
5110 8536
5111 7486
5111 8218
5111 8537
5112 7487
5112 8219
5112 8538
5113 7488
5113 8220
5113 8539
5114 7489
5114 8221
5114 8540
5115 7490
5115 8222
5115 8541
5116 7491
5116 8223
5116 8542
5117 7492
5117 8224
5117 8543
5118 7493
5118 8225
5118 8544
5119 7494
5119 8226
5119 8545
5120 7495
5120 8227
5120 8546
5121 7496
5121 8228
5121 8547
5122 7497
5122 8229
5122 8548
5123 7335
5123 8230
5123 8549
5124 7336
5124 8231
5124 8550
5125 7337
5125 8232
5125 8551
5126 7338
5126 8233
5126 8552
5127 7339
5127 8234
5127 8553
5128 7340
5128 8235
5128 8554
5129 7341
5129 8236
5129 8555
5130 7342
5130 8237
5130 8556
5131 7343
5131 8238
5131 8557
5132 7344
5132 8239
5132 8558
5133 7345
5133 8240
5133 8559
5134 7346
5134 8241
5134 8560
5135 7347
5135 8242
5135 8561
5136 7348
5136 8243
5136 8562
5137 7349
5137 8244
5137 8563
5138 7350
5138 8245
5138 8564
5139 7351
5139 8246
5139 8565
5140 7352
5140 8247
5140 8566
5141 7353
5141 8248
5141 8567
5142 7354
5142 8249
5142 8568
5143 7355
5143 8250
5143 8569
5144 7356
5144 8251
5144 8570
5145 7357
5145 8252
5145 8571
5146 7358
5146 8253
5146 8572
5147 7359
5147 8254
5147 8573
5148 7360
5148 8255
5148 8574
5149 7361
5149 8256
5149 8575
5150 7362
5150 8257
5150 8576
5151 7363
5151 8258
5151 8577
5152 7364
5152 8259
5152 8578
5153 7365
5153 8260
5153 8579
5154 7366
5154 8261
5154 8580
5155 7367
5155 8262
5155 8581
5156 7368
5156 8263
5156 8582
5157 7369
5157 8264
5157 8583
5158 7370
5158 8265
5158 8584
5159 7371
5159 8266
5159 8585
5160 7372
5160 8267
5160 8586
5161 7373
5161 8268
5161 8587
5162 7374
5162 8269
5162 8588
5163 7375
5163 8270
5163 8589
5164 7376
5164 8271
5164 8590
5165 7377
5165 8272
5165 8591
5166 7378
5166 8273
5166 8592
5167 7379
5167 8274
5167 8593
5168 7380
5168 8275
5168 8594
5169 7381
5169 8276
5169 8595
5170 7382
5170 8277
5170 8596
5171 7383
5171 8278
5171 8597
5172 7384
5172 8279
5172 8598
5173 7385
5173 8280
5173 8599
5174 7386
5174 8281
5174 8600
5175 7387
5175 8282
5175 8601
5176 7388
5176 8283
5176 8602
5177 7389
5177 8284
5177 8603
5178 7390
5178 8285
5178 8604
5179 7391
5179 8286
5179 8605
5180 7392
5180 8287
5180 8606
5181 7393
5181 8288
5181 8607
5182 7394
5182 8289
5182 8608
5183 7395
5183 8290
5183 8609
5184 7396
5184 8291
5184 8610
5185 7397
5185 8292
5185 8611
5186 7398
5186 8293
5186 8612
5187 7399
5187 8294
5187 8613
5188 7400
5188 8295
5188 8614
5189 7401
5189 8296
5189 8615
5190 7402
5190 8297
5190 8616
5191 7403
5191 8298
5191 8617
5192 7404
5192 8299
5192 8618
5193 7405
5193 8300
5193 8619
5194 7406
5194 8301
5194 8620
5195 7407
5195 8302
5195 8621
5196 7408
5196 8303
5196 8622
5197 7409
5197 8304
5197 8623
5198 7410
5198 8305
5198 8624
5199 7411
5199 8306
5199 8625
5200 7412
5200 8307
5200 8626
5201 7413
5201 8308
5201 8627
5202 7414
5202 8309
5202 8628
5203 7415
5203 8310
5203 8629
5204 7416
5204 8311
5204 8630
5205 7417
5205 8312
5205 8631
5206 7418
5206 8150
5206 8632
5207 7419
5207 8151
5207 8633
5208 7420
5208 8152
5208 8634
5209 7421
5209 8153
5209 8635
5210 7422
5210 8154
5210 8636
5211 7423
5211 8155
5211 8637
5212 7424
5212 8156
5212 8638
5213 7425
5213 8157
5213 8476
5214 7426
5214 8158
5214 8477
5215 7427
5215 8159
5215 8478
5216 7571
5216 8419
5216 8736
5217 7572
5217 8420
5217 8737
5218 7573
5218 8421
5218 8738
5219 7574
5219 8422
5219 8739
5220 7575
5220 8423
5220 8740
5221 7576
5221 8424
5221 8741
5222 7577
5222 8425
5222 8742
5223 7578
5223 8426
5223 8743
5224 7579
5224 8427
5224 8744
5225 7580
5225 8428
5225 8745
5226 7581
5226 8429
5226 8746
5227 7582
5227 8430
5227 8747
5228 7583
5228 8431
5228 8748
5229 7584
5229 8432
5229 8749
5230 7585
5230 8433
5230 8750
5231 7586
5231 8434
5231 8751
5232 7587
5232 8435
5232 8752
5233 7588
5233 8436
5233 8753
5234 7589
5234 8437
5234 8754
5235 7590
5235 8438
5235 8755
5236 7591
5236 8439
5236 8756
5237 7592
5237 8440
5237 8757
5238 7593
5238 8441
5238 8758
5239 7594
5239 8442
5239 8759
5240 7595
5240 8443
5240 8760
5241 7596
5241 8444
5241 8761
5242 7597
5242 8445
5242 8762
5243 7598
5243 8446
5243 8763
5244 7599
5244 8447
5244 8764
5245 7600
5245 8448
5245 8765
5246 7601
5246 8449
5246 8766
5247 7602
5247 8450
5247 8767
5248 7603
5248 8451
5248 8768
5249 7604
5249 8452
5249 8769
5250 7605
5250 8453
5250 8770
5251 7606
5251 8454
5251 8771
5252 7607
5252 8455
5252 8772
5253 7608
5253 8456
5253 8773
5254 7609
5254 8457
5254 8774
5255 7610
5255 8458
5255 8775
5256 7611
5256 8459
5256 8776
5257 7612
5257 8460
5257 8777
5258 7613
5258 8461
5258 8778
5259 7614
5259 8462
5259 8779
5260 7615
5260 8463
5260 8780
5261 7616
5261 8464
5261 8781
5262 7617
5262 8465
5262 8782
5263 7618
5263 8466
5263 8783
5264 7619
5264 8467
5264 8784
5265 7620
5265 8468
5265 8785
5266 7621
5266 8469
5266 8786
5267 7622
5267 8470
5267 8787
5268 7623
5268 8471
5268 8788
5269 7624
5269 8472
5269 8789
5270 7625
5270 8473
5270 8790
5271 7626
5271 8474
5271 8791
5272 7627
5272 8475
5272 8792
5273 7628
5273 8313
5273 8793
5274 7629
5274 8314
5274 8794
5275 7630
5275 8315
5275 8795
5276 7631
5276 8316
5276 8796
5277 7632
5277 8317
5277 8797
5278 7633
5278 8318
5278 8798
5279 7634
5279 8319
5279 8799
5280 7635
5280 8320
5280 8800
5281 7636
5281 8321
5281 8801
5282 7637
5282 8322
5282 8639
5283 7638
5283 8323
5283 8640
5284 7639
5284 8324
5284 8641
5285 7640
5285 8325
5285 8642
5286 7641
5286 8326
5286 8643
5287 7642
5287 8327
5287 8644
5288 7643
5288 8328
5288 8645
5289 7644
5289 8329
5289 8646
5290 7645
5290 8330
5290 8647
5291 7646
5291 8331
5291 8648
5292 7647
5292 8332
5292 8649
5293 7648
5293 8333
5293 8650
5294 7649
5294 8334
5294 8651
5295 7650
5295 8335
5295 8652
5296 7651
5296 8336
5296 8653
5297 7652
5297 8337
5297 8654
5298 7653
5298 8338
5298 8655
5299 7654
5299 8339
5299 8656
5300 7655
5300 8340
5300 8657
5301 7656
5301 8341
5301 8658
5302 7657
5302 8342
5302 8659
5303 7658
5303 8343
5303 8660
5304 7659
5304 8344
5304 8661
5305 7660
5305 8345
5305 8662
5306 7498
5306 8346
5306 8663
5307 7499
5307 8347
5307 8664
5308 7500
5308 8348
5308 8665
5309 7501
5309 8349
5309 8666
5310 7502
5310 8350
5310 8667
5311 7503
5311 8351
5311 8668
5312 7504
5312 8352
5312 8669
5313 7505
5313 8353
5313 8670
5314 7506
5314 8354
5314 8671
5315 7507
5315 8355
5315 8672
5316 7508
5316 8356
5316 8673
5317 7509
5317 8357
5317 8674
5318 7510
5318 8358
5318 8675
5319 7511
5319 8359
5319 8676
5320 7512
5320 8360
5320 8677
5321 7513
5321 8361
5321 8678
5322 7514
5322 8362
5322 8679
5323 7515
5323 8363
5323 8680
5324 7516
5324 8364
5324 8681
5325 7517
5325 8365
5325 8682
5326 7518
5326 8366
5326 8683
5327 7519
5327 8367
5327 8684
5328 7520
5328 8368
5328 8685
5329 7521
5329 8369
5329 8686
5330 7522
5330 8370
5330 8687
5331 7523
5331 8371
5331 8688
5332 7524
5332 8372
5332 8689
5333 7525
5333 8373
5333 8690
5334 7526
5334 8374
5334 8691
5335 7527
5335 8375
5335 8692
5336 7528
5336 8376
5336 8693
5337 7529
5337 8377
5337 8694
5338 7530
5338 8378
5338 8695
5339 7531
5339 8379
5339 8696
5340 7532
5340 8380
5340 8697
5341 7533
5341 8381
5341 8698
5342 7534
5342 8382
5342 8699
5343 7535
5343 8383
5343 8700
5344 7536
5344 8384
5344 8701
5345 7537
5345 8385
5345 8702
5346 7538
5346 8386
5346 8703
5347 7539
5347 8387
5347 8704
5348 7540
5348 8388
5348 8705
5349 7541
5349 8389
5349 8706
5350 7542
5350 8390
5350 8707
5351 7543
5351 8391
5351 8708
5352 7544
5352 8392
5352 8709
5353 7545
5353 8393
5353 8710
5354 7546
5354 8394
5354 8711
5355 7547
5355 8395
5355 8712
5356 7548
5356 8396
5356 8713
5357 7549
5357 8397
5357 8714
5358 7550
5358 8398
5358 8715
5359 7551
5359 8399
5359 8716
5360 7552
5360 8400
5360 8717
5361 7553
5361 8401
5361 8718
5362 7554
5362 8402
5362 8719
5363 7555
5363 8403
5363 8720
5364 7556
5364 8404
5364 8721
5365 7557
5365 8405
5365 8722
5366 7558
5366 8406
5366 8723
5367 7559
5367 8407
5367 8724
5368 7560
5368 8408
5368 8725
5369 7561
5369 8409
5369 8726
5370 7562
5370 8410
5370 8727
5371 7563
5371 8411
5371 8728
5372 7564
5372 8412
5372 8729
5373 7565
5373 8413
5373 8730
5374 7566
5374 8414
5374 8731
5375 7567
5375 8415
5375 8732
5376 7568
5376 8416
5376 8733
5377 7569
5377 8417
5377 8734
5378 7570
5378 8418
5378 8735
5379 7685
5379 8589
5380 7686
5380 8590
5381 7687
5381 8591
5382 7688
5382 8592
5383 7689
5383 8593
5384 7690
5384 8594
5385 7691
5385 8595
5386 7692
5386 8596
5387 7693
5387 8597
5388 7694
5388 8598
5389 7695
5389 8599
5390 7696
5390 8600
5391 7697
5391 8601
5392 7698
5392 8602
5393 7699
5393 8603
5394 7700
5394 8604
5395 7701
5395 8605
5396 7702
5396 8606
5397 7703
5397 8607
5398 7704
5398 8608
5399 7705
5399 8609
5400 7706
5400 8610
5401 7707
5401 8611
5402 7708
5402 8612
5403 7709
5403 8613
5404 7710
5404 8614
5405 7711
5405 8615
5406 7712
5406 8616
5407 7713
5407 8617
5408 7714
5408 8618
5409 7715
5409 8619
5410 7716
5410 8620
5411 7717
5411 8621
5412 7718
5412 8622
5413 7719
5413 8623
5414 7720
5414 8624
5415 7721
5415 8625
5416 7722
5416 8626
5417 7723
5417 8627
5418 7724
5418 8628
5419 7725
5419 8629
5420 7726
5420 8630
5421 7727
5421 8631
5422 7728
5422 8632
5423 7729
5423 8633
5424 7730
5424 8634
5425 7731
5425 8635
5426 7732
5426 8636
5427 7733
5427 8637
5428 7734
5428 8638
5429 7735
5429 8476
5430 7736
5430 8477
5431 7737
5431 8478
5432 7738
5432 8479
5433 7739
5433 8480
5434 7740
5434 8481
5435 7741
5435 8482
5436 7742
5436 8483
5437 7743
5437 8484
5438 7744
5438 8485
5439 7745
5439 8486
5440 7746
5440 8487
5441 7747
5441 8488
5442 7748
5442 8489
5443 7749
5443 8490
5444 7750
5444 8491
5445 7751
5445 8492
5446 7752
5446 8493
5447 7753
5447 8494
5448 7754
5448 8495
5449 7755
5449 8496
5450 7756
5450 8497
5451 7757
5451 8498
5452 7758
5452 8499
5453 7759
5453 8500
5454 7760
5454 8501
5455 7761
5455 8502
5456 7762
5456 8503
5457 7763
5457 8504
5458 7764
5458 8505
5459 7765
5459 8506
5460 7766
5460 8507
5461 7767
5461 8508
5462 7768
5462 8509
5463 7769
5463 8510
5464 7770
5464 8511
5465 7771
5465 8512
5466 7772
5466 8513
5467 7773
5467 8514
5468 7774
5468 8515
5469 7775
5469 8516
5470 7776
5470 8517
5471 7777
5471 8518
5472 7778
5472 8519
5473 7779
5473 8520
5474 7780
5474 8521
5475 7781
5475 8522
5476 7782
5476 8523
5477 7783
5477 8524
5478 7784
5478 8525
5479 7785
5479 8526
5480 7786
5480 8527
5481 7787
5481 8528
5482 7788
5482 8529
5483 7789
5483 8530
5484 7790
5484 8531
5485 7791
5485 8532
5486 7792
5486 8533
5487 7793
5487 8534
5488 7794
5488 8535
5489 7795
5489 8536
5490 7796
5490 8537
5491 7797
5491 8538
5492 7798
5492 8539
5493 7799
5493 8540
5494 7800
5494 8541
5495 7801
5495 8542
5496 7802
5496 8543
5497 7803
5497 8544
5498 7804
5498 8545
5499 7805
5499 8546
5500 7806
5500 8547
5501 7807
5501 8548
5502 7808
5502 8549
5503 7809
5503 8550
5504 7810
5504 8551
5505 7811
5505 8552
5506 7812
5506 8553
5507 7813
5507 8554
5508 7814
5508 8555
5509 7815
5509 8556
5510 7816
5510 8557
5511 7817
5511 8558
5512 7818
5512 8559
5513 7819
5513 8560
5514 7820
5514 8561
5515 7821
5515 8562
5516 7822
5516 8563
5517 7823
5517 8564
5518 7661
5518 8565
5519 7662
5519 8566
5520 7663
5520 8567
5521 7664
5521 8568
5522 7665
5522 8569
5523 7666
5523 8570
5524 7667
5524 8571
5525 7668
5525 8572
5526 7669
5526 8573
5527 7670
5527 8574
5528 7671
5528 8575
5529 7672
5529 8576
5530 7673
5530 8577
5531 7674
5531 8578
5532 7675
5532 8579
5533 7676
5533 8580
5534 7677
5534 8581
5535 7678
5535 8582
5536 7679
5536 8583
5537 7680
5537 8584
5538 7681
5538 8585
5539 7682
5539 8586
5540 7683
5540 8587
5541 7684
5541 8588
5542 7948
5542 8761
5543 7949
5543 8762
5544 7950
5544 8763
5545 7951
5545 8764
5546 7952
5546 8765
5547 7953
5547 8766
5548 7954
5548 8767
5549 7955
5549 8768
5550 7956
5550 8769
5551 7957
5551 8770
5552 7958
5552 8771
5553 7959
5553 8772
5554 7960
5554 8773
5555 7961
5555 8774
5556 7962
5556 8775
5557 7963
5557 8776
5558 7964
5558 8777
5559 7965
5559 8778
5560 7966
5560 8779
5561 7967
5561 8780
5562 7968
5562 8781
5563 7969
5563 8782
5564 7970
5564 8783
5565 7971
5565 8784
5566 7972
5566 8785
5567 7973
5567 8786
5568 7974
5568 8787
5569 7975
5569 8788
5570 7976
5570 8789
5571 7977
5571 8790
5572 7978
5572 8791
5573 7979
5573 8792
5574 7980
5574 8793
5575 7981
5575 8794
5576 7982
5576 8795
5577 7983
5577 8796
5578 7984
5578 8797
5579 7985
5579 8798
5580 7986
5580 8799
5581 7824
5581 8800
5582 7825
5582 8801
5583 7826
5583 8639
5584 7827
5584 8640
5585 7828
5585 8641
5586 7829
5586 8642
5587 7830
5587 8643
5588 7831
5588 8644
5589 7832
5589 8645
5590 7833
5590 8646
5591 7834
5591 8647
5592 7835
5592 8648
5593 7836
5593 8649
5594 7837
5594 8650
5595 7838
5595 8651
5596 7839
5596 8652
5597 7840
5597 8653
5598 7841
5598 8654
5599 7842
5599 8655
5600 7843
5600 8656
5601 7844
5601 8657
5602 7845
5602 8658
5603 7846
5603 8659
5604 7847
5604 8660
5605 7848
5605 8661
5606 7849
5606 8662
5607 7850
5607 8663
5608 7851
5608 8664
5609 7852
5609 8665
5610 7853
5610 8666
5611 7854
5611 8667
5612 7855
5612 8668
5613 7856
5613 8669
5614 7857
5614 8670
5615 7858
5615 8671
5616 7859
5616 8672
5617 7860
5617 8673
5618 7861
5618 8674
5619 7862
5619 8675
5620 7863
5620 8676
5621 7864
5621 8677
5622 7865
5622 8678
5623 7866
5623 8679
5624 7867
5624 8680
5625 7868
5625 8681
5626 7869
5626 8682
5627 7870
5627 8683
5628 7871
5628 8684
5629 7872
5629 8685
5630 7873
5630 8686
5631 7874
5631 8687
5632 7875
5632 8688
5633 7876
5633 8689
5634 7877
5634 8690
5635 7878
5635 8691
5636 7879
5636 8692
5637 7880
5637 8693
5638 7881
5638 8694
5639 7882
5639 8695
5640 7883
5640 8696
5641 7884
5641 8697
5642 7885
5642 8698
5643 7886
5643 8699
5644 7887
5644 8700
5645 7888
5645 8701
5646 7889
5646 8702
5647 7890
5647 8703
5648 7891
5648 8704
5649 7892
5649 8705
5650 7893
5650 8706
5651 7894
5651 8707
5652 7895
5652 8708
5653 7896
5653 8709
5654 7897
5654 8710
5655 7898
5655 8711
5656 7899
5656 8712
5657 7900
5657 8713
5658 7901
5658 8714
5659 7902
5659 8715
5660 7903
5660 8716
5661 7904
5661 8717
5662 7905
5662 8718
5663 7906
5663 8719
5664 7907
5664 8720
5665 7908
5665 8721
5666 7909
5666 8722
5667 7910
5667 8723
5668 7911
5668 8724
5669 7912
5669 8725
5670 7913
5670 8726
5671 7914
5671 8727
5672 7915
5672 8728
5673 7916
5673 8729
5674 7917
5674 8730
5675 7918
5675 8731
5676 7919
5676 8732
5677 7920
5677 8733
5678 7921
5678 8734
5679 7922
5679 8735
5680 7923
5680 8736
5681 7924
5681 8737
5682 7925
5682 8738
5683 7926
5683 8739
5684 7927
5684 8740
5685 7928
5685 8741
5686 7929
5686 8742
5687 7930
5687 8743
5688 7931
5688 8744
5689 7932
5689 8745
5690 7933
5690 8746
5691 7934
5691 8747
5692 7935
5692 8748
5693 7936
5693 8749
5694 7937
5694 8750
5695 7938
5695 8751
5696 7939
5696 8752
5697 7940
5697 8753
5698 7941
5698 8754
5699 7942
5699 8755
5700 7943
5700 8756
5701 7944
5701 8757
5702 7945
5702 8758
5703 7946
5703 8759
5704 7947
5704 8760
5705 8030
5706 8031
5707 8032
5708 8033
5709 8034
5710 8035
5711 8036
5712 8037
5713 8038
5714 8039
5715 8040
5716 8041
5717 8042
5718 8043
5719 8044
5720 8045
5721 8046
5722 8047
5723 8048
5724 8049
5725 8050
5726 8051
5727 8052
5728 8053
5729 8054
5730 8055
5731 8056
5732 8057
5733 8058
5734 8059
5735 8060
5736 8061
5737 8062
5738 8063
5739 8064
5740 8065
5741 8066
5742 8067
5743 8068
5744 8069
5745 8070
5746 8071
5747 8072
5748 8073
5749 8074
5750 8075
5751 8076
5752 8077
5753 8078
5754 8079
5755 8080
5756 8081
5757 8082
5758 8083
5759 8084
5760 8085
5761 8086
5762 8087
5763 8088
5764 8089
5765 8090
5766 8091
5767 8092
5768 8093
5769 8094
5770 8095
5771 8096
5772 8097
5773 8098
5774 8099
5775 8100
5776 8101
5777 8102
5778 8103
5779 8104
5780 8105
5781 8106
5782 8107
5783 8108
5784 8109
5785 8110
5786 8111
5787 8112
5788 8113
5789 8114
5790 8115
5791 8116
5792 8117
5793 8118
5794 8119
5795 8120
5796 8121
5797 8122
5798 8123
5799 8124
5800 8125
5801 8126
5802 8127
5803 8128
5804 8129
5805 8130
5806 8131
5807 8132
5808 8133
5809 8134
5810 8135
5811 8136
5812 8137
5813 8138
5814 8139
5815 8140
5816 8141
5817 8142
5818 8143
5819 8144
5820 8145
5821 8146
5822 8147
5823 8148
5824 8149
5825 7987
5826 7988
5827 7989
5828 7990
5829 7991
5830 7992
5831 7993
5832 7994
5833 7995
5834 7996
5835 7997
5836 7998
5837 7999
5838 8000
5839 8001
5840 8002
5841 8003
5842 8004
5843 8005
5844 8006
5845 8007
5846 8008
5847 8009
5848 8010
5849 8011
5850 8012
5851 8013
5852 8014
5853 8015
5854 8016
5855 8017
5856 8018
5857 8019
5858 8020
5859 8021
5860 8022
5861 8023
5862 8024
5863 8025
5864 8026
5865 8027
5866 8028
5867 8029
5868 8182
5869 8183
5870 8184
5871 8185
5872 8186
5873 8187
5874 8188
5875 8189
5876 8190
5877 8191
5878 8192
5879 8193
5880 8194
5881 8195
5882 8196
5883 8197
5884 8198
5885 8199
5886 8200
5887 8201
5888 8202
5889 8203
5890 8204
5891 8205
5892 8206
5893 8207
5894 8208
5895 8209
5896 8210
5897 8211
5898 8212
5899 8213
5900 8214
5901 8215
5902 8216
5903 8217
5904 8218
5905 8219
5906 8220
5907 8221
5908 8222
5909 8223
5910 8224
5911 8225
5912 8226
5913 8227
5914 8228
5915 8229
5916 8230
5917 8231
5918 8232
5919 8233
5920 8234
5921 8235
5922 8236
5923 8237
5924 8238
5925 8239
5926 8240
5927 8241
5928 8242
5929 8243
5930 8244
5931 8245
5932 8246
5933 8247
5934 8248
5935 8249
5936 8250
5937 8251
5938 8252
5939 8253
5940 8254
5941 8255
5942 8256
5943 8257
5944 8258
5945 8259
5946 8260
5947 8261
5948 8262
5949 8263
5950 8264
5951 8265
5952 8266
5953 8267
5954 8268
5955 8269
5956 8270
5957 8271
5958 8272
5959 8273
5960 8274
5961 8275
5962 8276
5963 8277
5964 8278
5965 8279
5966 8280
5967 8281
5968 8282
5969 8283
5970 8284
5971 8285
5972 8286
5973 8287
5974 8288
5975 8289
5976 8290
5977 8291
5978 8292
5979 8293
5980 8294
5981 8295
5982 8296
5983 8297
5984 8298
5985 8299
5986 8300
5987 8301
5988 8302
5989 8303
5990 8304
5991 8305
5992 8306
5993 8307
5994 8308
5995 8309
5996 8310
5997 8311
5998 8312
5999 8150
6000 8151
6001 8152
6002 8153
6003 8154
6004 8155
6005 8156
6006 8157
6007 8158
6008 8159
6009 8160
6010 8161
6011 8162
6012 8163
6013 8164
6014 8165
6015 8166
6016 8167
6017 8168
6018 8169
6019 8170
6020 8171
6021 8172
6022 8173
6023 8174
6024 8175
6025 8176
6026 8177
6027 8178
6028 8179
6029 8180
6030 8181
6031 8424
6032 8425
6033 8426
6034 8427
6035 8428
6036 8429
6037 8430
6038 8431
6039 8432
6040 8433
6041 8434
6042 8435
6043 8436
6044 8437
6045 8438
6046 8439
6047 8440
6048 8441
6049 8442
6050 8443
6051 8444
6052 8445
6053 8446
6054 8447
6055 8448
6056 8449
6057 8450
6058 8451
6059 8452
6060 8453
6061 8454
6062 8455
6063 8456
6064 8457
6065 8458
6066 8459
6067 8460
6068 8461
6069 8462
6070 8463
6071 8464
6072 8465
6073 8466
6074 8467
6075 8468
6076 8469
6077 8470
6078 8471
6079 8472
6080 8473
6081 8474
6082 8475
6083 8313
6084 8314
6085 8315
6086 8316
6087 8317
6088 8318
6089 8319
6090 8320
6091 8321
6092 8322
6093 8323
6094 8324
6095 8325
6096 8326
6097 8327
6098 8328
6099 8329
6100 8330
6101 8331
6102 8332
6103 8333
6104 8334
6105 8335
6106 8336
6107 8337
6108 8338
6109 8339
6110 8340
6111 8341
6112 8342
6113 8343
6114 8344
6115 8345
6116 8346
6117 8347
6118 8348
6119 8349
6120 8350
6121 8351
6122 8352
6123 8353
6124 8354
6125 8355
6126 8356
6127 8357
6128 8358
6129 8359
6130 8360
6131 8361
6132 8362
6133 8363
6134 8364
6135 8365
6136 8366
6137 8367
6138 8368
6139 8369
6140 8370
6141 8371
6142 8372
6143 8373
6144 8374
6145 8375
6146 8376
6147 8377
6148 8378
6149 8379
6150 8380
6151 8381
6152 8382
6153 8383
6154 8384
6155 8385
6156 8386
6157 8387
6158 8388
6159 8389
6160 8390
6161 8391
6162 8392
6163 8393
6164 8394
6165 8395
6166 8396
6167 8397
6168 8398
6169 8399
6170 8400
6171 8401
6172 8402
6173 8403
6174 8404
6175 8405
6176 8406
6177 8407
6178 8408
6179 8409
6180 8410
6181 8411
6182 8412
6183 8413
6184 8414
6185 8415
6186 8416
6187 8417
6188 8418
6189 8419
6190 8420
6191 8421
6192 8422
6193 8423
6194 8479
6195 8480
6196 8481
6197 8482
6198 8483
6199 8484
6200 8485
6201 8486
6202 8487
6203 8488
6204 8489
6205 8490
6206 8491
6207 8492
6208 8493
6209 8494
6210 8495
6211 8496
6212 8497
6213 8498
6214 8499
6215 8500
6216 8501
6217 8502
6218 8503
6219 8504
6220 8505
6221 8506
6222 8507
6223 8508
6224 8509
6225 8510
6226 8511
6227 8512
6228 8513
6229 8514
6230 8515
6231 8516
6232 8517
6233 8518
6234 8519
6235 8520
6236 8521
6237 8522
6238 8523
6239 8524
6240 8525
6241 8526
6242 8527
6243 8528
6244 8529
6245 8530
6246 8531
6247 8532
6248 8533
6249 8534
6250 8535
6251 8536
6252 8537
6253 8538
6254 8539
6255 8540
6256 8541
6257 8542
6258 8543
6259 8544
6260 8545
6261 8546
6262 8547
6263 8548
6264 8549
6265 8550
6266 8551
6267 8552
6268 8553
6269 8554
6270 8555
6271 8556
6272 8557
6273 8558
6274 8559
6275 8560
6276 8561
6277 8562
6278 8563
6279 8564
6280 8565
6281 8566
6282 8567
6283 8568
6284 8569
6285 8570
6286 8571
6287 8572
6288 8573
6289 8574
6290 8575
6291 8576
6292 8577
6293 8578
6294 8579
6295 8580
6296 8581
6297 8582
6298 8583
6299 8584
6300 8585
6301 8586
6302 8587
6303 8588
6304 8589
6305 8590
6306 8591
6307 8592
6308 8593
6309 8594
6310 8595
6311 8596
6312 8597
6313 8598
6314 8599
6315 8600
6316 8601
6317 8602
6318 8603
6319 8604
6320 8605
6321 8606
6322 8607
6323 8608
6324 8609
6325 8610
6326 8611
6327 8612
6328 8613
6329 8614
6330 8615
6331 8616
6332 8617
6333 8618
6334 8619
6335 8620
6336 8621
6337 8622
6338 8623
6339 8624
6340 8625
6341 8626
6342 8627
6343 8628
6344 8629
6345 8630
6346 8631
6347 8632
6348 8633
6349 8634
6350 8635
6351 8636
6352 8637
6353 8638
6354 8476
6355 8477
6356 8478
6357 8736
6358 8737
6359 8738
6360 8739
6361 8740
6362 8741
6363 8742
6364 8743
6365 8744
6366 8745
6367 8746
6368 8747
6369 8748
6370 8749
6371 8750
6372 8751
6373 8752
6374 8753
6375 8754
6376 8755
6377 8756
6378 8757
6379 8758
6380 8759
6381 8760
6382 8761
6383 8762
6384 8763
6385 8764
6386 8765
6387 8766
6388 8767
6389 8768
6390 8769
6391 8770
6392 8771
6393 8772
6394 8773
6395 8774
6396 8775
6397 8776
6398 8777
6399 8778
6400 8779
6401 8780
6402 8781
6403 8782
6404 8783
6405 8784
6406 8785
6407 8786
6408 8787
6409 8788
6410 8789
6411 8790
6412 8791
6413 8792
6414 8793
6415 8794
6416 8795
6417 8796
6418 8797
6419 8798
6420 8799
6421 8800
6422 8801
6423 8639
6424 8640
6425 8641
6426 8642
6427 8643
6428 8644
6429 8645
6430 8646
6431 8647
6432 8648
6433 8649
6434 8650
6435 8651
6436 8652
6437 8653
6438 8654
6439 8655
6440 8656
6441 8657
6442 8658
6443 8659
6444 8660
6445 8661
6446 8662
6447 8663
6448 8664
6449 8665
6450 8666
6451 8667
6452 8668
6453 8669
6454 8670
6455 8671
6456 8672
6457 8673
6458 8674
6459 8675
6460 8676
6461 8677
6462 8678
6463 8679
6464 8680
6465 8681
6466 8682
6467 8683
6468 8684
6469 8685
6470 8686
6471 8687
6472 8688
6473 8689
6474 8690
6475 8691
6476 8692
6477 8693
6478 8694
6479 8695
6480 8696
6481 8697
6482 8698
6483 8699
6484 8700
6485 8701
6486 8702
6487 8703
6488 8704
6489 8705
6490 8706
6491 8707
6492 8708
6493 8709
6494 8710
6495 8711
6496 8712
6497 8713
6498 8714
6499 8715
6500 8716
6501 8717
6502 8718
6503 8719
6504 8720
6505 8721
6506 8722
6507 8723
6508 8724
6509 8725
6510 8726
6511 8727
6512 8728
6513 8729
6514 8730
6515 8731
6516 8732
6517 8733
6518 8734
6519 8735
